Ag1Bi1P2Se6Cr1S2                        
   1.00000000000000     
    -6.6112440000000001    0.0000000000000000    0.0000000000000000
    -3.3056220000000001   -5.7255060000000002    0.0000000000000000
     0.0000000000000000    0.0000000000000000   22.7371429999999997
   Ag   Bi   P    Se   Cr   S 
     1     1     2     6     4     8
Direct
  0.0000000000000000 -0.0000000000000000  0.4398742157517775
  0.6666659999999993  0.6666669999999968  0.4395850525814984
  0.3333340000000007  0.3333330000000032  0.3897938029998653
  0.3333340000000007  0.3333330000000032  0.4894524909234395
  0.6486314989261657  0.3296835916123454  0.3592811353340336
  0.0216839094614986  0.6486324989261631  0.3592811353340336
  0.3296825916123479  0.0216849094614961  0.3592811353340336
  0.0218766253835446  0.3298623523891662  0.5199928037408035
  0.6482610222272892  0.0218766253835446  0.5199928037408035
  0.3298623523891661  0.6482610222272892  0.5199928037408035
  0.0000000000000000 -0.0000000000000000  0.8890010360516568
  0.5125006457509046 -0.0250057304732675  0.9028551722984874
 -0.0250057304732675  0.5125050847223630  0.9028551722984874
  0.5125050847223630  0.5125006457509046  0.9028551722984874
  0.6666669999999968  0.6666664999999981  0.9689986883081294
  0.1583050797972372  0.6833996707876722  0.9544761668587244
  0.6834001707876709  0.1582952494150763  0.9544761668587244
  0.1582957494150750  0.1583045797972385  0.9544761668587244
  0.8260354088907039  0.8260308531160189  0.8370903929933439
  0.3479332379932862  0.8260359088907027  0.8370903929933439
  0.8260303531160201  0.3479337379932850  0.8370903929933439
  0.3333330000000032  0.3333335000000019  0.8536179382445849
 
  0.00000000E+00  0.00000000E+00  0.00000000E+00
  0.00000000E+00  0.00000000E+00  0.00000000E+00
  0.00000000E+00  0.00000000E+00  0.00000000E+00
  0.00000000E+00  0.00000000E+00  0.00000000E+00
  0.00000000E+00  0.00000000E+00  0.00000000E+00
  0.00000000E+00  0.00000000E+00  0.00000000E+00
  0.00000000E+00  0.00000000E+00  0.00000000E+00
  0.00000000E+00  0.00000000E+00  0.00000000E+00
  0.00000000E+00  0.00000000E+00  0.00000000E+00
  0.00000000E+00  0.00000000E+00  0.00000000E+00
  0.00000000E+00  0.00000000E+00  0.00000000E+00
  0.00000000E+00  0.00000000E+00  0.00000000E+00
  0.00000000E+00  0.00000000E+00  0.00000000E+00
  0.00000000E+00  0.00000000E+00  0.00000000E+00
  0.00000000E+00  0.00000000E+00  0.00000000E+00
  0.00000000E+00  0.00000000E+00  0.00000000E+00
  0.00000000E+00  0.00000000E+00  0.00000000E+00
  0.00000000E+00  0.00000000E+00  0.00000000E+00
  0.00000000E+00  0.00000000E+00  0.00000000E+00
  0.00000000E+00  0.00000000E+00  0.00000000E+00
  0.00000000E+00  0.00000000E+00  0.00000000E+00
  0.00000000E+00  0.00000000E+00  0.00000000E+00
