 Ag Bi P Se Mo                          
   1.00000000000000     
    -6.6622579999999996    0.0000000000000000    0.0000000000000000
    -3.3311279999999996   -5.7696860000000001    0.0000000000000000
     0.0000000000000000    0.0000000000000000   23.3452319999999993
   Ag   Bi   P    Se   Mo
     1     1     2    14     4
Direct
  0.0000000000000000  0.0000000000000000  0.4282583014999628
  0.6666669999999968  0.6666659999999993  0.4276029924962387
  0.3333330000000032  0.3333340000000007  0.3795382066407013
  0.3333330000000032  0.3333340000000007  0.4763073613709327
  0.3307934353674343  0.6462857369022865  0.3502692214407464
  0.6462867369022840  0.0229198277302816  0.3502692214407464
  0.0229208277302791  0.3307924353674369  0.3502692214407464
  0.3314102991322407  0.0224528834943124  0.5054202761637940
  0.0224528834943124  0.6461368173734469  0.5054202761637940
  0.6461368173734469  0.3314102991322407  0.5054202761637940
  0.0000000000000000  0.0000000000000000  0.9720339598814112
  0.0000080378214504  0.5000080688436140  0.9720367442759672
  0.4999838933349426  0.0000080378214504  0.9720367442759672
  0.5000080688436140  0.4999838933349426  0.9720367442759672
  0.0000000000000000  0.0000000000000000  0.8276562427336687
 -0.0000015954664963  0.5000126486139320  0.8276572472781074
  0.4999889468525645 -0.0000015954664963  0.8276572472781074
  0.5000126486139320  0.4999889468525645  0.8276572472781074
  0.6666664999999981  0.6666669999999968  0.8998714370474042
  0.6666655643842648  0.1666555663850953  0.8998684152344770
  0.1666788692306323  0.6666660643842636  0.8998684152344770
  0.1666550663850966  0.1666793692306310  0.8998684152344770
 
  0.00000000E+00  0.00000000E+00  0.00000000E+00
  0.00000000E+00  0.00000000E+00  0.00000000E+00
  0.00000000E+00  0.00000000E+00  0.00000000E+00
  0.00000000E+00  0.00000000E+00  0.00000000E+00
  0.00000000E+00  0.00000000E+00  0.00000000E+00
  0.00000000E+00  0.00000000E+00  0.00000000E+00
  0.00000000E+00  0.00000000E+00  0.00000000E+00
  0.00000000E+00  0.00000000E+00  0.00000000E+00
  0.00000000E+00  0.00000000E+00  0.00000000E+00
  0.00000000E+00  0.00000000E+00  0.00000000E+00
  0.00000000E+00  0.00000000E+00  0.00000000E+00
  0.00000000E+00  0.00000000E+00  0.00000000E+00
  0.00000000E+00  0.00000000E+00  0.00000000E+00
  0.00000000E+00  0.00000000E+00  0.00000000E+00
  0.00000000E+00  0.00000000E+00  0.00000000E+00
  0.00000000E+00  0.00000000E+00  0.00000000E+00
  0.00000000E+00  0.00000000E+00  0.00000000E+00
  0.00000000E+00  0.00000000E+00  0.00000000E+00
  0.00000000E+00  0.00000000E+00  0.00000000E+00
  0.00000000E+00  0.00000000E+00  0.00000000E+00
  0.00000000E+00  0.00000000E+00  0.00000000E+00
  0.00000000E+00  0.00000000E+00  0.00000000E+00
