Ag1Bi1P2Se6Nb3Cl8                       
   1.00000000000000     
    -6.7779160000000003    0.0000000000000000    0.0000000000000000
    -3.3889580000000001   -5.8698480000000002    0.0000000000000000
     0.0000000000000000    0.0000000000000000   23.4951809999999988
   Ag   Bi   P    Se   Cl   Nb
     1     1     2     6     8     3
Direct
 -0.0000000000000000  0.0000000000000000  0.4511473119198335
  0.6666659999999993  0.6666669999999968  0.4505717027085360
  0.3333340000000007  0.3333330000000032  0.4022320277805100
  0.3333340000000007  0.3333330000000032  0.4979529612995403
  0.6420618676758689  0.3336843246519696  0.3745966634111471
  0.0242528076721639  0.6420628676758664  0.3745966634111471
  0.3336833246519721  0.0242538076721614  0.3745966634111471
  0.0255580056839066  0.3333217387925931  0.5265383819839594
  0.6411202555235005  0.0255580056839066  0.5265383819839594
  0.3333217387925931  0.6411202555235005  0.5265383819839594
 -0.0000000000000000  0.0000000000000000  0.8038543991524186
  0.3333340000000007  0.3333330000000032  0.6655557541901485
  0.5027839528079099  0.5013487357643872  0.7973539347083047
  0.5013477357643826  0.9958673114277099  0.7973539347083047
  0.8321375393577412  0.8296362819163383  0.6721185462648013
  0.8296352819163408  0.3382261787259207  0.6721185462648013
  0.9958663114277124  0.5027849528079145  0.7973539347083047
  0.3382251787259232  0.8321385393577386  0.6721185462648013
  0.1657879120129007  0.1676447656079373  0.7346350028883357
  0.1676437656079399  0.6665673223791622  0.7346350028883357
  0.6665663223791647  0.1657889120128982  0.7346350028883357
 
  0.00000000E+00  0.00000000E+00  0.00000000E+00
  0.00000000E+00  0.00000000E+00  0.00000000E+00
  0.00000000E+00  0.00000000E+00  0.00000000E+00
  0.00000000E+00  0.00000000E+00  0.00000000E+00
  0.00000000E+00  0.00000000E+00  0.00000000E+00
  0.00000000E+00  0.00000000E+00  0.00000000E+00
  0.00000000E+00  0.00000000E+00  0.00000000E+00
  0.00000000E+00  0.00000000E+00  0.00000000E+00
  0.00000000E+00  0.00000000E+00  0.00000000E+00
  0.00000000E+00  0.00000000E+00  0.00000000E+00
  0.00000000E+00  0.00000000E+00  0.00000000E+00
  0.00000000E+00  0.00000000E+00  0.00000000E+00
  0.00000000E+00  0.00000000E+00  0.00000000E+00
  0.00000000E+00  0.00000000E+00  0.00000000E+00
  0.00000000E+00  0.00000000E+00  0.00000000E+00
  0.00000000E+00  0.00000000E+00  0.00000000E+00
  0.00000000E+00  0.00000000E+00  0.00000000E+00
  0.00000000E+00  0.00000000E+00  0.00000000E+00
  0.00000000E+00  0.00000000E+00  0.00000000E+00
  0.00000000E+00  0.00000000E+00  0.00000000E+00
  0.00000000E+00  0.00000000E+00  0.00000000E+00
