Ag1Bi1P2Se6Ta1S2                        
   1.00000000000000     
    -6.6862860000000000    0.0000000000000000    0.0000000000000000
    -3.3431419999999998   -5.7904939999999998    0.0000000000000000
     0.0000000000000000    0.0000000000000000   23.1274289999999993
   Ag   Bi   P    Se   S    Ta
     1     1     2     6     8     4
Direct
 -0.0000000000000000 -0.0000000000000000  0.4322042706249799
  0.6666659999999993  0.6666669999999968  0.4318232838050789
  0.3333340000000007  0.3333330000000032  0.3831634121313353
  0.3333340000000007  0.3333330000000032  0.4807656141175322
  0.6455982639426260  0.3311129574337021  0.3538570662852662
  0.0232877786236745  0.6455992639426235  0.3538570662852662
  0.3311119574337046  0.0232887786236720  0.3538570662852662
  0.0228896992740575  0.3318381072716204  0.5100223170280573
  0.6452721934543222  0.0228896992740575  0.5100223170280573
  0.3318381072716204  0.6452721934543222  0.5100223170280573
  0.6666669999999968  0.6666664999999981  0.9654953455714549
  0.1665612554361376  0.6668743051364593  0.9663936746881752
  0.6668748051364580  0.1665644394273887  0.9663936746881752
  0.1665649394273874  0.1665607554361389  0.9663936746881752
  0.6666669999999968  0.6666664999999981  0.8341150751178377
  0.1665564958113506  0.6668839791807681  0.8332232274096006
  0.6668844791807669  0.1665595250078812  0.8332232274096006
  0.1665600250078799  0.1665559958113518  0.8332232274096006
 -0.0000000000000000 -0.0000000000000000  0.8998157500306843
  0.5001817515720787 -0.0003599900769563  0.8998105212163621
 -0.0003599900769563  0.5001782385048775  0.8998105212163621
  0.5001782385048775  0.5001817515720787  0.8998105212163621
 
  0.00000000E+00  0.00000000E+00  0.00000000E+00
  0.00000000E+00  0.00000000E+00  0.00000000E+00
  0.00000000E+00  0.00000000E+00  0.00000000E+00
  0.00000000E+00  0.00000000E+00  0.00000000E+00
  0.00000000E+00  0.00000000E+00  0.00000000E+00
  0.00000000E+00  0.00000000E+00  0.00000000E+00
  0.00000000E+00  0.00000000E+00  0.00000000E+00
  0.00000000E+00  0.00000000E+00  0.00000000E+00
  0.00000000E+00  0.00000000E+00  0.00000000E+00
  0.00000000E+00  0.00000000E+00  0.00000000E+00
  0.00000000E+00  0.00000000E+00  0.00000000E+00
  0.00000000E+00  0.00000000E+00  0.00000000E+00
  0.00000000E+00  0.00000000E+00  0.00000000E+00
  0.00000000E+00  0.00000000E+00  0.00000000E+00
  0.00000000E+00  0.00000000E+00  0.00000000E+00
  0.00000000E+00  0.00000000E+00  0.00000000E+00
  0.00000000E+00  0.00000000E+00  0.00000000E+00
  0.00000000E+00  0.00000000E+00  0.00000000E+00
  0.00000000E+00  0.00000000E+00  0.00000000E+00
  0.00000000E+00  0.00000000E+00  0.00000000E+00
  0.00000000E+00  0.00000000E+00  0.00000000E+00
  0.00000000E+00  0.00000000E+00  0.00000000E+00
