Ag1Bi1P2Se6Sc2N1Cl2                     
   1.00000000000000     
    -6.7073539999999996    0.0000000000000000    0.0000000000000000
    -3.3536759999999997   -5.8087400000000002    0.0000000000000000
     0.0000000000000000    0.0000000000000000   25.7528140000000008
   Ag   Bi   P    Se   Cl   N    Sc
     1     1     2     6     8     4     8
Direct
  0.0000000000000000  0.0000000000000000  0.3871057370824585
  0.6666659999999993  0.6666669999999968  0.3878278139993649
  0.3333340000000007  0.3333330000000032  0.3439181355700342
  0.3333340000000007  0.3333330000000032  0.4315485123620718
  0.6440869742051772  0.3326116053578323  0.3177461265497266
  0.0233004204369930  0.6440879742051747  0.3177461265497266
  0.3326106053578348  0.0233014204369905  0.3177461265497266
  0.0234853522556300  0.3318593812639228  0.4576071171174980
  0.6446552664804475  0.0234853522556300  0.4576071171174980
  0.3318593812639228  0.6446552664804475  0.4576071171174980
  0.6666669999999968  0.6666664999999981  0.0120800852851087
  0.1674644582965654  0.6650720575034437  0.0100283113973005
  0.6650725575034424  0.1674634841999837  0.0100283113973005
  0.1674639841999825  0.1674639582965667  0.0100283113973005
  0.8325351496512381  0.8325353059644257  0.7900442781798819
  0.3349290443843444  0.8325356496512368  0.7900442781798819
  0.8325348059644270  0.3349295443843431  0.7900442781798819
  0.3333330000000032  0.3333335000000019  0.7879932885308156
  0.0000000000000000  0.0000000000000000  0.9000347737726028
  0.4999996298780948  0.0000007747248570  0.9000353715560190
  0.0000007747248570  0.4999995953970482  0.9000353715560190
  0.4999995953970482  0.4999996298780948  0.9000353715560190
  0.8324858436871111  0.8324861313101541  0.9462898309748766
  0.3350275250027433  0.8324863436871098  0.9462898309748766
  0.8324856313101554  0.3350280250027420  0.9462898309748766
  0.3333330000000032  0.3333335000000019  0.9453807512552993
  0.6666669999999968  0.6666664999999981  0.8546900556757465
  0.1675141100904933  0.6649725225329531  0.8537803428157403
  0.6649730225329519  0.1675133673765466  0.8537803428157403
  0.1675138673765454  0.1675136100904945  0.8537803428157403
 
  0.00000000E+00  0.00000000E+00  0.00000000E+00
  0.00000000E+00  0.00000000E+00  0.00000000E+00
  0.00000000E+00  0.00000000E+00  0.00000000E+00
  0.00000000E+00  0.00000000E+00  0.00000000E+00
  0.00000000E+00  0.00000000E+00  0.00000000E+00
  0.00000000E+00  0.00000000E+00  0.00000000E+00
  0.00000000E+00  0.00000000E+00  0.00000000E+00
  0.00000000E+00  0.00000000E+00  0.00000000E+00
  0.00000000E+00  0.00000000E+00  0.00000000E+00
  0.00000000E+00  0.00000000E+00  0.00000000E+00
  0.00000000E+00  0.00000000E+00  0.00000000E+00
  0.00000000E+00  0.00000000E+00  0.00000000E+00
  0.00000000E+00  0.00000000E+00  0.00000000E+00
  0.00000000E+00  0.00000000E+00  0.00000000E+00
  0.00000000E+00  0.00000000E+00  0.00000000E+00
  0.00000000E+00  0.00000000E+00  0.00000000E+00
  0.00000000E+00  0.00000000E+00  0.00000000E+00
  0.00000000E+00  0.00000000E+00  0.00000000E+00
  0.00000000E+00  0.00000000E+00  0.00000000E+00
  0.00000000E+00  0.00000000E+00  0.00000000E+00
  0.00000000E+00  0.00000000E+00  0.00000000E+00
  0.00000000E+00  0.00000000E+00  0.00000000E+00
  0.00000000E+00  0.00000000E+00  0.00000000E+00
  0.00000000E+00  0.00000000E+00  0.00000000E+00
  0.00000000E+00  0.00000000E+00  0.00000000E+00
  0.00000000E+00  0.00000000E+00  0.00000000E+00
  0.00000000E+00  0.00000000E+00  0.00000000E+00
  0.00000000E+00  0.00000000E+00  0.00000000E+00
  0.00000000E+00  0.00000000E+00  0.00000000E+00
  0.00000000E+00  0.00000000E+00  0.00000000E+00
