Ag1Bi1P2Se6Cr2Ge2Te6                    
   1.00000000000000     
    -6.9045050000000003    0.0000000000000000    0.0000000000000000
    -3.4522520000000005   -5.9794770000000002    0.0000000000000000
     0.0000000000000000    0.0000000000000000   23.4446030000000007
   Ag   Bi   P    Se   Cr   Ge   Te
     1     1     2     6     2     2     6
Direct
  0.0000000000000000  0.0000000000000000  0.4251937319311432
  0.6666659999999993  0.6666669999999968  0.4275205842349363
  0.3333340000000007  0.3333330000000032  0.3795918912404685
  0.3333340000000007  0.3333330000000032  0.4752220265855741
  0.6358512133847604  0.3375086849641796  0.3525332843824837
  0.0266391016510623  0.6358522133847578  0.3525332843824837
  0.3375076849641821  0.0266401016510598  0.3525332843824837
  0.0261530365266925  0.3380028561476286  0.5021606469664264
  0.6358441073256793  0.0261530365266925  0.5021606469664264
  0.3380028561476286  0.6358441073256793  0.5021606469664264
  0.6666659999999993  0.6666669999999968  0.8987201313686797
  0.3333340000000007  0.3333330000000032  0.8987399414077129
  0.0000000000000000  0.0000000000000000  0.9496207646214033
  0.0000000000000000  0.0000000000000000  0.8478579242690658
  0.0000010653066247  0.6306602604153678  0.9730211840510110
  0.6306602604153678  0.3693386742780079  0.9730211840510110
  0.3693386742780079  0.0000010653066247  0.9730211840510110
  0.0000019119694761  0.3693213285212017  0.8244278380899778
  0.3693213285212017  0.6306767595093218  0.8244278380899778
  0.6306767595093218  0.0000019119694761  0.8244278380899778
 
  0.00000000E+00  0.00000000E+00  0.00000000E+00
  0.00000000E+00  0.00000000E+00  0.00000000E+00
  0.00000000E+00  0.00000000E+00  0.00000000E+00
  0.00000000E+00  0.00000000E+00  0.00000000E+00
  0.00000000E+00  0.00000000E+00  0.00000000E+00
  0.00000000E+00  0.00000000E+00  0.00000000E+00
  0.00000000E+00  0.00000000E+00  0.00000000E+00
  0.00000000E+00  0.00000000E+00  0.00000000E+00
  0.00000000E+00  0.00000000E+00  0.00000000E+00
  0.00000000E+00  0.00000000E+00  0.00000000E+00
  0.00000000E+00  0.00000000E+00  0.00000000E+00
  0.00000000E+00  0.00000000E+00  0.00000000E+00
  0.00000000E+00  0.00000000E+00  0.00000000E+00
  0.00000000E+00  0.00000000E+00  0.00000000E+00
  0.00000000E+00  0.00000000E+00  0.00000000E+00
  0.00000000E+00  0.00000000E+00  0.00000000E+00
  0.00000000E+00  0.00000000E+00  0.00000000E+00
  0.00000000E+00  0.00000000E+00  0.00000000E+00
  0.00000000E+00  0.00000000E+00  0.00000000E+00
  0.00000000E+00  0.00000000E+00  0.00000000E+00
