 Ag Bi P Se In                          
   1.00000000000000     
    -6.5364500000000003    0.0000000000000000    0.0000000000000000
    -3.2682250000000002   -5.6607320000000003    0.0000000000000000
     0.0000000000000000    0.0000000000000000   23.5716560000000008
   Ag   Bi   P    Se   In
     2     1     4    12     1
Direct
  0.0000000000000000 -0.0000000000000000  0.4241855420549397
  0.3333330000000032  0.3333340000000007  0.8998891901120969
  0.6666669999999968  0.6666659999999993  0.4234055228374285
  0.3333330000000032  0.3333340000000007  0.3755246130489930
  0.3333330000000032  0.3333340000000007  0.4719093216091579
  0.6666669999999968  0.6666659999999993  0.8519352080515485
  0.6666669999999968  0.6666659999999993  0.9478738650714796
  0.3285879356494714  0.6511936835482001  0.3453846515012977
  0.6511946835481975  0.0202173808023239  0.3453846515012977
  0.0202183808023214  0.3285869356494739  0.3453846515012977
  0.3296708966389638  0.0196898513373565  0.5019288979252238
  0.0196898513373565  0.6506392520236798  0.5019288979252238
  0.6506392520236798  0.3296708966389638  0.5019288979252238
  0.9817557312752482  0.6733825696964729  0.8249695728184124
  0.6733835696964704  0.3448606990282743  0.8249695728184124
  0.3448616990282717  0.9817547312752436  0.8249695728184124
  0.9817667174219543  0.3448467208399772  0.9748233716626546
  0.6733865617380687  0.9817657174219497  0.9748233716626546
  0.3448477208399747  0.6733855617380712  0.9748233716626546
  0.0000000000000000 -0.0000000000000000  0.8998973424028173
 
  0.00000000E+00  0.00000000E+00  0.00000000E+00
  0.00000000E+00  0.00000000E+00  0.00000000E+00
  0.00000000E+00  0.00000000E+00  0.00000000E+00
  0.00000000E+00  0.00000000E+00  0.00000000E+00
  0.00000000E+00  0.00000000E+00  0.00000000E+00
  0.00000000E+00  0.00000000E+00  0.00000000E+00
  0.00000000E+00  0.00000000E+00  0.00000000E+00
  0.00000000E+00  0.00000000E+00  0.00000000E+00
  0.00000000E+00  0.00000000E+00  0.00000000E+00
  0.00000000E+00  0.00000000E+00  0.00000000E+00
  0.00000000E+00  0.00000000E+00  0.00000000E+00
  0.00000000E+00  0.00000000E+00  0.00000000E+00
  0.00000000E+00  0.00000000E+00  0.00000000E+00
  0.00000000E+00  0.00000000E+00  0.00000000E+00
  0.00000000E+00  0.00000000E+00  0.00000000E+00
  0.00000000E+00  0.00000000E+00  0.00000000E+00
  0.00000000E+00  0.00000000E+00  0.00000000E+00
  0.00000000E+00  0.00000000E+00  0.00000000E+00
  0.00000000E+00  0.00000000E+00  0.00000000E+00
  0.00000000E+00  0.00000000E+00  0.00000000E+00
