Ag1Bi1P2Se6Pb1O2                        
   1.00000000000000     
    -6.8249540000000000    0.0000000000000000    0.0000000000000000
    -3.4124759999999998   -5.9105840000000001    0.0000000000000000
     0.0000000000000000    0.0000000000000000   22.1487499999999997
   Ag   Bi   P    Se   O    Pb
     1     1     2     6     8     4
Direct
 -0.0000000000000000 -0.0000000000000000  0.4518486406080122
  0.6666659999999993  0.6666669999999968  0.4512810231896304
  0.3333340000000007  0.3333330000000032  0.4006333238980413
  0.3333340000000007  0.3333330000000032  0.5020166550706303
  0.6401434299297960  0.3341287081823989  0.3713531862291387
  0.0257268618878076  0.6401444299297935  0.3713531862291387
  0.3341277081824015  0.0257278618878051  0.3713531862291387
  0.0252690911917488  0.3349939329555681  0.5312790725197087
  0.6397369758526901  0.0252690911917488  0.5312790725197087
  0.3349939329555681  0.6397369758526901  0.5312790725197087
  0.6666669999999968  0.6666664999999981  0.9473222702187764
  0.1666713351048424  0.6666674311845536  0.9473186385195136
  0.6666679311845524  0.1666612337105969  0.9473186385195136
  0.1666617337105956  0.1666708351048437  0.9473186385195136
  0.8333327850896276  0.8333426467758988  0.8517304383058493
  0.3333240681344818  0.8333332850896263  0.8517304383058493
  0.8333421467759000  0.3333245681344805  0.8517304383058492
  0.3333330000000032  0.3333335000000019  0.8517304051402446
 -0.0000000000000000 -0.0000000000000000  0.8995506199474471
  0.4999824483970469  0.0000162133256090  0.8995477927158493
  0.0000162133256090  0.5000013382773443  0.8995477927158493
  0.5000013382773443  0.4999824483970469  0.8995477927158493
 
  0.00000000E+00  0.00000000E+00  0.00000000E+00
  0.00000000E+00  0.00000000E+00  0.00000000E+00
  0.00000000E+00  0.00000000E+00  0.00000000E+00
  0.00000000E+00  0.00000000E+00  0.00000000E+00
  0.00000000E+00  0.00000000E+00  0.00000000E+00
  0.00000000E+00  0.00000000E+00  0.00000000E+00
  0.00000000E+00  0.00000000E+00  0.00000000E+00
  0.00000000E+00  0.00000000E+00  0.00000000E+00
  0.00000000E+00  0.00000000E+00  0.00000000E+00
  0.00000000E+00  0.00000000E+00  0.00000000E+00
  0.00000000E+00  0.00000000E+00  0.00000000E+00
  0.00000000E+00  0.00000000E+00  0.00000000E+00
  0.00000000E+00  0.00000000E+00  0.00000000E+00
  0.00000000E+00  0.00000000E+00  0.00000000E+00
  0.00000000E+00  0.00000000E+00  0.00000000E+00
  0.00000000E+00  0.00000000E+00  0.00000000E+00
  0.00000000E+00  0.00000000E+00  0.00000000E+00
  0.00000000E+00  0.00000000E+00  0.00000000E+00
  0.00000000E+00  0.00000000E+00  0.00000000E+00
  0.00000000E+00  0.00000000E+00  0.00000000E+00
  0.00000000E+00  0.00000000E+00  0.00000000E+00
  0.00000000E+00  0.00000000E+00  0.00000000E+00
