Ag1Bi1P2Se6Ni1Cl2                       
   1.00000000000000     
    -6.9093580000000001    0.0000000000000000    0.0000000000000000
    -3.4546800000000002   -5.9836799999999997    0.0000000000000000
     0.0000000000000000    0.0000000000000000   22.6135109999999990
   Ag   Bi   P    Se   Cl   Ni
     1     1     2     6     8     4
Direct
 -0.0000000000000000  0.0000000000000000  0.4404263706451828
  0.6666659999999993  0.6666669999999968  0.4434782980556805
  0.3333340000000007  0.3333330000000032  0.3935530388984194
  0.3333340000000007  0.3333330000000032  0.4925822897523554
  0.6353572076551814  0.3382397347116791  0.3655821710432994
  0.0264020576331420  0.6353582076551789  0.3655821710432994
  0.3382387347116816  0.0264030576331395  0.3655821710432994
  0.0263896208054992  0.3378088856949061  0.5204782797633489
  0.6358014934996021  0.0263896208054992  0.5204782797633489
  0.3378088856949062  0.6358014934996021  0.5204782797633489
  0.6666669999999968  0.6666664999999981  0.8423012155298462
  0.1666675110492408  0.6666654335144607  0.8423005930465993
  0.6666659335144595  0.1666670554362915  0.8423005930465993
  0.1666675554362902  0.1666670110492421  0.8423005930465993
  0.8333337078253583  0.8333334152440066  0.9555694632774465
  0.3333323769306432  0.8333342078253571  0.9555694632774465
  0.8333329152440079  0.3333328769306420  0.9555694632774465
  0.3333330000000032  0.3333335000000019  0.9555702767083121
 -0.0000000000000000  0.0000000000000000  0.8989274843518769
  0.4999997846590074  0.0000017016870470  0.8989294490672141
  0.0000017016870470  0.4999985136539386  0.8989294490672141
  0.4999985136539386  0.4999997846590074  0.8989294490672141
 
  0.00000000E+00  0.00000000E+00  0.00000000E+00
  0.00000000E+00  0.00000000E+00  0.00000000E+00
  0.00000000E+00  0.00000000E+00  0.00000000E+00
  0.00000000E+00  0.00000000E+00  0.00000000E+00
  0.00000000E+00  0.00000000E+00  0.00000000E+00
  0.00000000E+00  0.00000000E+00  0.00000000E+00
  0.00000000E+00  0.00000000E+00  0.00000000E+00
  0.00000000E+00  0.00000000E+00  0.00000000E+00
  0.00000000E+00  0.00000000E+00  0.00000000E+00
  0.00000000E+00  0.00000000E+00  0.00000000E+00
  0.00000000E+00  0.00000000E+00  0.00000000E+00
  0.00000000E+00  0.00000000E+00  0.00000000E+00
  0.00000000E+00  0.00000000E+00  0.00000000E+00
  0.00000000E+00  0.00000000E+00  0.00000000E+00
  0.00000000E+00  0.00000000E+00  0.00000000E+00
  0.00000000E+00  0.00000000E+00  0.00000000E+00
  0.00000000E+00  0.00000000E+00  0.00000000E+00
  0.00000000E+00  0.00000000E+00  0.00000000E+00
  0.00000000E+00  0.00000000E+00  0.00000000E+00
  0.00000000E+00  0.00000000E+00  0.00000000E+00
  0.00000000E+00  0.00000000E+00  0.00000000E+00
  0.00000000E+00  0.00000000E+00  0.00000000E+00
