Ag1Bi1P2Se6Cr2Br2O2                     
   1.00000000000000     
    -6.5972020000000002    0.0000000000000000    0.0000000000000000
     0.0000000000000000  -11.5972590000000011    0.0000000000000000
     0.0000000000000000    0.0000000000000000   25.4367139999999985
   Ag   Bi   P    Se   Br   Cr   O 
     2     2     4    12    12    12    12
Direct
 -0.0020711278640129  0.0354619567988726  0.3919799383313897
  0.4979273661250050  0.5354339752710089  0.3919508605683435
  0.5009301941849332  0.8340496093323431  0.3927033374688263
  0.0009019081470613  0.3340544859269290  0.3927010977367616
 -0.0057000729926272  0.6630484622264077  0.3474218003012106
  0.4942761410275063  0.1630412332619383  0.3474286445176207
  0.0064190818416936  0.6634173350661721  0.4375565211593322
  0.5064022836126502  0.1634209726348592  0.4375634164399809
  0.2969212301205594  0.6602423603439981  0.3140909807911235
  0.7969004405704530  0.1602263655399958  0.3140990384412638
  0.8444458615153133  0.8212941260419884  0.3199810512068756
  0.3444231764691251  0.3212833692785242  0.3199819457578205
  0.8181599662747949  0.5035195208306762  0.3275775925554084
  0.3181161086660141  0.0035154477625811  0.3275923862706505
  0.7034261603044931  0.6596581913878981  0.4705558518354757
  0.2034149078953169  0.1596789941703424  0.4705677827797201
  0.1826823256495788  0.5038415209729257  0.4576730290269239
  0.6826523214529131  0.0038429501303434  0.4576845639059476
  0.1550290415741909  0.8221187880197204  0.4647502776345624
  0.6550209886140858  0.3221244580855465  0.4647528865814651
  0.9999916218006835 -0.0000144994713024  0.0039837540016342
  0.9999912555734659  0.6667169912594166  0.0039829826791690
  0.9999909176968690  0.3333763764696928  0.0039852370269198
  0.4999939976102684  0.0000150510149354  0.0039833071595478
  0.4999937389491969  0.6666259255939344  0.0039844737404927
  0.4999925214633037  0.3332905565351029  0.0039843924052050
  0.7499948064402486  0.8332394650061722  0.7961328636178232
  0.7499937640126977  0.4999042832134614  0.7961338980685475
  0.7499937342317489  0.1665718048960001  0.7961342910851474
  0.2499901350586330  0.8334338581795397  0.7961317524510342
  0.2499898409260716  0.5000933874500968  0.7961328262210939
  0.2499912517402625  0.1667659692856743  0.7961333584595560
  0.7499912381222525 -0.0000015664303904  0.9330335700654995
  0.7499917767186021  0.6666659681386570  0.9330325719690744
  0.7499909702181408  0.3333355960806128  0.9330340895340368
  0.2499934705515066  0.0000019260999467  0.9330345061833190
  0.2499927067513901  0.6666694152353788  0.9330329198930992
  0.2499922197872966  0.3333393156057980  0.9330348262514619
 -0.0000065252447057  0.8333333746247218  0.8670823474218231
 -0.0000076985411399  0.5000022889032132  0.8670836486512968
 -0.0000066627421367  0.1666698814644165  0.8670836602493708
  0.4999909583699138  0.8333328464512400  0.8670811410317086
  0.4999906136190822  0.5000015260030245  0.8670827635119996
  0.4999911313983781  0.1666698692465236  0.8670822979634742
 -0.0000066584942300  0.0000012153817040  0.8844156705826702
 -0.0000067152743805  0.6666699380508025  0.8844146706928108
 -0.0000075004805924  0.3333350983535296  0.8844160689767304
  0.4999919904171971  0.0000026756937412  0.8844149096595358
  0.4999912793195509  0.6666677814414181  0.8844140475817954
  0.4999915264955508  0.3333332805815492  0.8844154087035169
  0.7499874017249423  0.8333336501096215  0.9156996376401882
  0.7499916037583491  0.4999994819802286  0.9157008435917965
  0.7499961246205618  0.1666656128079084  0.9157009612699955
  0.2499976925083699  0.8333380070509583  0.9157000940189756
  0.2499924296669121  0.5000036780765653  0.9157012627206712
  0.2499887380367025  0.1666698465330051  0.9157011617757466
 
  0.00000000E+00  0.00000000E+00  0.00000000E+00
  0.00000000E+00  0.00000000E+00  0.00000000E+00
  0.00000000E+00  0.00000000E+00  0.00000000E+00
  0.00000000E+00  0.00000000E+00  0.00000000E+00
  0.00000000E+00  0.00000000E+00  0.00000000E+00
  0.00000000E+00  0.00000000E+00  0.00000000E+00
  0.00000000E+00  0.00000000E+00  0.00000000E+00
  0.00000000E+00  0.00000000E+00  0.00000000E+00
  0.00000000E+00  0.00000000E+00  0.00000000E+00
  0.00000000E+00  0.00000000E+00  0.00000000E+00
  0.00000000E+00  0.00000000E+00  0.00000000E+00
  0.00000000E+00  0.00000000E+00  0.00000000E+00
  0.00000000E+00  0.00000000E+00  0.00000000E+00
  0.00000000E+00  0.00000000E+00  0.00000000E+00
  0.00000000E+00  0.00000000E+00  0.00000000E+00
  0.00000000E+00  0.00000000E+00  0.00000000E+00
  0.00000000E+00  0.00000000E+00  0.00000000E+00
  0.00000000E+00  0.00000000E+00  0.00000000E+00
  0.00000000E+00  0.00000000E+00  0.00000000E+00
  0.00000000E+00  0.00000000E+00  0.00000000E+00
  0.00000000E+00  0.00000000E+00  0.00000000E+00
  0.00000000E+00  0.00000000E+00  0.00000000E+00
  0.00000000E+00  0.00000000E+00  0.00000000E+00
  0.00000000E+00  0.00000000E+00  0.00000000E+00
  0.00000000E+00  0.00000000E+00  0.00000000E+00
  0.00000000E+00  0.00000000E+00  0.00000000E+00
  0.00000000E+00  0.00000000E+00  0.00000000E+00
  0.00000000E+00  0.00000000E+00  0.00000000E+00
  0.00000000E+00  0.00000000E+00  0.00000000E+00
  0.00000000E+00  0.00000000E+00  0.00000000E+00
  0.00000000E+00  0.00000000E+00  0.00000000E+00
  0.00000000E+00  0.00000000E+00  0.00000000E+00
  0.00000000E+00  0.00000000E+00  0.00000000E+00
  0.00000000E+00  0.00000000E+00  0.00000000E+00
  0.00000000E+00  0.00000000E+00  0.00000000E+00
  0.00000000E+00  0.00000000E+00  0.00000000E+00
  0.00000000E+00  0.00000000E+00  0.00000000E+00
  0.00000000E+00  0.00000000E+00  0.00000000E+00
  0.00000000E+00  0.00000000E+00  0.00000000E+00
  0.00000000E+00  0.00000000E+00  0.00000000E+00
  0.00000000E+00  0.00000000E+00  0.00000000E+00
  0.00000000E+00  0.00000000E+00  0.00000000E+00
  0.00000000E+00  0.00000000E+00  0.00000000E+00
  0.00000000E+00  0.00000000E+00  0.00000000E+00
  0.00000000E+00  0.00000000E+00  0.00000000E+00
  0.00000000E+00  0.00000000E+00  0.00000000E+00
  0.00000000E+00  0.00000000E+00  0.00000000E+00
  0.00000000E+00  0.00000000E+00  0.00000000E+00
  0.00000000E+00  0.00000000E+00  0.00000000E+00
  0.00000000E+00  0.00000000E+00  0.00000000E+00
  0.00000000E+00  0.00000000E+00  0.00000000E+00
  0.00000000E+00  0.00000000E+00  0.00000000E+00
  0.00000000E+00  0.00000000E+00  0.00000000E+00
  0.00000000E+00  0.00000000E+00  0.00000000E+00
  0.00000000E+00  0.00000000E+00  0.00000000E+00
  0.00000000E+00  0.00000000E+00  0.00000000E+00
