 Ag Bi P Se V                           
   1.00000000000000     
    -6.7076099999999999    0.0000000000000000    0.0000000000000000
    -3.3538060000000001   -5.8089599999999999    0.0000000000000000
     0.0000000000000000    0.0000000000000000   23.1511220000000009
   Ag   Bi   P    Se   V 
     1     1     2    14     4
Direct
 -0.0000000000000000 -0.0000000000000000  0.4312737481811653
  0.6666669999999968  0.6666659999999993  0.4321148231735772
  0.3333330000000032  0.3333340000000007  0.3831576235239600
  0.3333330000000032  0.3333340000000007  0.4806485211701554
  0.3325625766718994  0.6441893924502061  0.3541181686827452
  0.6441903924502036  0.0232470308778975  0.3541181686827452
  0.0232480308778950  0.3325615766719019  0.3541181686827452
  0.3316802865105319  0.0235797186765667  0.5096629294008408
  0.0235797186765667  0.6447399948129011  0.5096629294008408
  0.6447399948129011  0.3316802865105319  0.5096629294008408
  0.6666664999999981  0.6666669999999968  0.9662769453368862
  0.6696982375225499  0.1525049713863942  0.9684128038948528
  0.1777967910910489  0.6696987375225486  0.9684128038948528
  0.1525044713863955  0.1777972910910477  0.9684128038948528
  0.8222872257385987  0.8474665128538810  0.8306417239645997
  0.8474670128538797  0.3302457614075290  0.8306417239645997
  0.3302462614075277  0.8222867257386000  0.8306417239645997
  0.3333335000000019  0.3333330000000032  0.8327952194202387
 -0.0000000000000000 -0.0000000000000000  0.8995401431463905
 -0.0000795523830036  0.4722799012948355  0.8995236383337043
  0.5277996510881613 -0.0000795523830036  0.8995236383337043
  0.4722799012948355  0.5277996510881613  0.8995236383337043
 
  0.00000000E+00  0.00000000E+00  0.00000000E+00
  0.00000000E+00  0.00000000E+00  0.00000000E+00
  0.00000000E+00  0.00000000E+00  0.00000000E+00
  0.00000000E+00  0.00000000E+00  0.00000000E+00
  0.00000000E+00  0.00000000E+00  0.00000000E+00
  0.00000000E+00  0.00000000E+00  0.00000000E+00
  0.00000000E+00  0.00000000E+00  0.00000000E+00
  0.00000000E+00  0.00000000E+00  0.00000000E+00
  0.00000000E+00  0.00000000E+00  0.00000000E+00
  0.00000000E+00  0.00000000E+00  0.00000000E+00
  0.00000000E+00  0.00000000E+00  0.00000000E+00
  0.00000000E+00  0.00000000E+00  0.00000000E+00
  0.00000000E+00  0.00000000E+00  0.00000000E+00
  0.00000000E+00  0.00000000E+00  0.00000000E+00
  0.00000000E+00  0.00000000E+00  0.00000000E+00
  0.00000000E+00  0.00000000E+00  0.00000000E+00
  0.00000000E+00  0.00000000E+00  0.00000000E+00
  0.00000000E+00  0.00000000E+00  0.00000000E+00
  0.00000000E+00  0.00000000E+00  0.00000000E+00
  0.00000000E+00  0.00000000E+00  0.00000000E+00
  0.00000000E+00  0.00000000E+00  0.00000000E+00
  0.00000000E+00  0.00000000E+00  0.00000000E+00
