Ag1Bi1P2Se6Nb1S2                        
   1.00000000000000     
    -6.7164900000000003    0.0000000000000000    0.0000000000000000
    -3.3582459999999998   -5.8169979999999999    0.0000000000000000
    -0.9531180000000000    0.0000000000000000   23.1343290000000010
   Ag   Bi   P    Se   Nb   S 
     1     1     2     6     4     8
Direct
  0.9265504995626777  0.0382767081664456  0.4312899253374086
  0.6826046754770221  0.6582297594482943  0.4322633436733451
  0.3501927825923064  0.3235069627289747  0.3830878893981435
  0.3371995114374388  0.3334172840016096  0.4809949557106310
  0.6597636960492734  0.3298161376064052  0.3494028564147268
  0.0462761799533990  0.6342034997337885  0.3530734618151046
  0.3410411880854125  0.0147923593927404  0.3608674402439830
  0.0260659357180759  0.3288887735040849  0.5112305163514584
  0.6397148419562673  0.0200274962079940  0.5132658486997971
  0.3235382022058601  0.6517079557315243  0.5047469938901178
  0.0358636278570130  0.4283520496899684  0.8996460451292139
  0.0357803962308675  0.9283888155563962  0.8996552362968785
  0.5357878356506557  0.4283630852874176  0.8996475857106304
  0.5356464129720158  0.9284962121157241  0.8996567037211861
  0.3589746219774935  0.2635197074977527  0.9656620279652046
  0.3583012360205566  0.7643876514174958  0.9673445544082078
  0.8590052543790759  0.2634986965868458  0.9656252179810338
  0.8582138235364289  0.7644523290773285  0.9673111021314630
  0.3777344224599706  0.2634859025491934  0.8336304562064432
  0.3775140738161540  0.7643973717782195  0.8319575472674534
  0.8777465311859199  0.2634699778781345  0.8336666198499607
  0.8774122508761469  0.7644632640436896  0.8319891726267643
 
  0.00000000E+00  0.00000000E+00  0.00000000E+00
  0.00000000E+00  0.00000000E+00  0.00000000E+00
  0.00000000E+00  0.00000000E+00  0.00000000E+00
  0.00000000E+00  0.00000000E+00  0.00000000E+00
  0.00000000E+00  0.00000000E+00  0.00000000E+00
  0.00000000E+00  0.00000000E+00  0.00000000E+00
  0.00000000E+00  0.00000000E+00  0.00000000E+00
  0.00000000E+00  0.00000000E+00  0.00000000E+00
  0.00000000E+00  0.00000000E+00  0.00000000E+00
  0.00000000E+00  0.00000000E+00  0.00000000E+00
  0.00000000E+00  0.00000000E+00  0.00000000E+00
  0.00000000E+00  0.00000000E+00  0.00000000E+00
  0.00000000E+00  0.00000000E+00  0.00000000E+00
  0.00000000E+00  0.00000000E+00  0.00000000E+00
  0.00000000E+00  0.00000000E+00  0.00000000E+00
  0.00000000E+00  0.00000000E+00  0.00000000E+00
  0.00000000E+00  0.00000000E+00  0.00000000E+00
  0.00000000E+00  0.00000000E+00  0.00000000E+00
  0.00000000E+00  0.00000000E+00  0.00000000E+00
  0.00000000E+00  0.00000000E+00  0.00000000E+00
  0.00000000E+00  0.00000000E+00  0.00000000E+00
  0.00000000E+00  0.00000000E+00  0.00000000E+00
