 Ag Bi P Se Re                          
   1.00000000000000     
    -6.6646999999999998    0.0000000000000000    0.0000000000000000
    -3.3934880000000001   -5.9509910000000001    0.0000000000000000
    -0.1236960000000000   -3.4926040000000000   23.7958029999999994
   Ag   Bi   P    Se   Re
     1     1     2    14     4
Direct
  0.9048582909592987  0.0088945178915761  0.4092368514992005
  0.6830321174852483  0.6552286971851496  0.4242318502561911
  0.3338250656567505  0.3548688832149796  0.3744562864416855
  0.3584575284663372  0.3094824728794778  0.4697940786296075
  0.6305888393528143  0.3851684319510671  0.3425908558727260
  0.0194890619712583  0.6742349259116648  0.3421553430358015
  0.3206639776617537  0.0588055703103578  0.3552172868441952
  0.0581557227911723  0.2863891504371722  0.4978508582274830
  0.6754012729813866  0.9811671612052481  0.5001551990256327
  0.3520073802585512  0.6114049121600912  0.4928113660176258
  0.0725946853354104  0.0928034009481041  0.8229881249253972
  0.5570042922139561  0.1546143268821084  0.8308806593107683
  0.4424374279364059  0.8467291616177408  0.9670393047323381
  0.9355324295447685  0.4072852338642501  0.9586304696707453
  0.0639582451284339  0.5939711507897637  0.8392843967741342
  0.4269468021020515  0.3705011516502758  0.9501391043828773
  0.9268801129893218  0.9084803209836150  0.9749407852286521
  0.5725471453245279  0.6307520920876402  0.8477890553015839
  0.8036624974105602  0.2199298904751169  0.8976984975120849
  0.1958219078219125  0.7813307237387007  0.9002283157015935
  0.2515555441960607  0.1817700951971284  0.8982372277167910
  0.7479116524120053  0.8195217286187508  0.8996832989379135
 
  0.00000000E+00  0.00000000E+00  0.00000000E+00
  0.00000000E+00  0.00000000E+00  0.00000000E+00
  0.00000000E+00  0.00000000E+00  0.00000000E+00
  0.00000000E+00  0.00000000E+00  0.00000000E+00
  0.00000000E+00  0.00000000E+00  0.00000000E+00
  0.00000000E+00  0.00000000E+00  0.00000000E+00
  0.00000000E+00  0.00000000E+00  0.00000000E+00
  0.00000000E+00  0.00000000E+00  0.00000000E+00
  0.00000000E+00  0.00000000E+00  0.00000000E+00
  0.00000000E+00  0.00000000E+00  0.00000000E+00
  0.00000000E+00  0.00000000E+00  0.00000000E+00
  0.00000000E+00  0.00000000E+00  0.00000000E+00
  0.00000000E+00  0.00000000E+00  0.00000000E+00
  0.00000000E+00  0.00000000E+00  0.00000000E+00
  0.00000000E+00  0.00000000E+00  0.00000000E+00
  0.00000000E+00  0.00000000E+00  0.00000000E+00
  0.00000000E+00  0.00000000E+00  0.00000000E+00
  0.00000000E+00  0.00000000E+00  0.00000000E+00
  0.00000000E+00  0.00000000E+00  0.00000000E+00
  0.00000000E+00  0.00000000E+00  0.00000000E+00
  0.00000000E+00  0.00000000E+00  0.00000000E+00
  0.00000000E+00  0.00000000E+00  0.00000000E+00
