 Ag Bi P Se Br Nb                       
   1.00000000000000     
    -6.6857300000000004    0.0000000000000000    0.0000000000000000
    -3.3402479999999999   -5.8905510000000003    0.0000000000000000
     0.9042120000000000    3.3380760000000000   24.3911300000000004
   Ag   Bi   P    Se   Br   Nb
     1     1     2    10     4     2
Direct
  0.0080624056616143  0.9137145654708850  0.4213306303965580
  0.6503867495469968  0.6867030725496467  0.4066821856167075
  0.3488684065265247  0.3192338882329391  0.3619944994364585
  0.3213506642893277  0.3691241823133869  0.4550964358201277
  0.6707977043366825  0.2966150580508368  0.3388152382040278
  0.0392240794185406  0.6137794971101722  0.3336495413583602
  0.3430779577472217  0.0018889652335014  0.3334564466104790
  0.0045712763995504  0.3694753050499255  0.4720289348945225
  0.6178490944998021  0.0800483695281669  0.4866524796963697
  0.3286383575929486  0.6858256006304457  0.4891527128002510
  0.2981160264459510  0.4819366367541887  0.8679843134336989
  0.7019861869406792  0.5174453645593172  0.9309785551402011
  0.0458118145167377  0.4478266798366034  0.8080165900052499
  0.9543409359064416  0.5515445825136084  0.9909329446910387
  0.5004416368703837  0.8642642976117750  0.8373845449235663
  0.4996376944258893  0.1351046225556403  0.9615589476427681
  0.0999267113260935  0.9346500368009494  0.9615548519288328
  0.9001429753547765  0.0647556074195562  0.8373891617894432
  0.8731927416192815  0.7534453292359365  0.8994780755357268
  0.1269085805745618  0.2459523385425128  0.8994872138812257
 
  0.00000000E+00  0.00000000E+00  0.00000000E+00
  0.00000000E+00  0.00000000E+00  0.00000000E+00
  0.00000000E+00  0.00000000E+00  0.00000000E+00
  0.00000000E+00  0.00000000E+00  0.00000000E+00
  0.00000000E+00  0.00000000E+00  0.00000000E+00
  0.00000000E+00  0.00000000E+00  0.00000000E+00
  0.00000000E+00  0.00000000E+00  0.00000000E+00
  0.00000000E+00  0.00000000E+00  0.00000000E+00
  0.00000000E+00  0.00000000E+00  0.00000000E+00
  0.00000000E+00  0.00000000E+00  0.00000000E+00
  0.00000000E+00  0.00000000E+00  0.00000000E+00
  0.00000000E+00  0.00000000E+00  0.00000000E+00
  0.00000000E+00  0.00000000E+00  0.00000000E+00
  0.00000000E+00  0.00000000E+00  0.00000000E+00
  0.00000000E+00  0.00000000E+00  0.00000000E+00
  0.00000000E+00  0.00000000E+00  0.00000000E+00
  0.00000000E+00  0.00000000E+00  0.00000000E+00
  0.00000000E+00  0.00000000E+00  0.00000000E+00
  0.00000000E+00  0.00000000E+00  0.00000000E+00
  0.00000000E+00  0.00000000E+00  0.00000000E+00
