Ag1Bi1P2Se6Nb2C1S2                      
   1.00000000000000     
    -6.5984920000000002    0.0000000000000000    0.0000000000000000
    -3.2992460000000001   -5.7144620000000002    0.0000000000000000
     0.0000000000000000    0.0000000000000000   25.6921140000000001
   Ag   Bi   P    Se   C    Nb   S 
     1     1     2     6     4     8     8
Direct
  0.0000000000000000 -0.0000000000000000  0.3888391667480491
  0.6666659999999993  0.6666669999999968  0.3883974168909325
  0.3333340000000007  0.3333330000000032  0.3445041368830162
  0.3333340000000007  0.3333330000000032  0.4326955289318247
  0.6489719818492262  0.3295133305893734  0.3173737924957071
  0.0215136875613957  0.6489729818492237  0.3173737924957071
  0.3295123305893760  0.0215146875613932  0.3173737924957071
  0.0211011920124844  0.3302009689883486  0.4597293974449627
  0.6486978389991671  0.0211011920124844  0.4597293974449627
  0.3302009689883486  0.6486978389991671  0.4597293974449627
  0.0000000000000000 -0.0000000000000000  0.9000289836696345
  0.4999999420553555  0.0000002303921349  0.9000291118590978
  0.0000002303921349  0.4999998275525098  0.9000291118590978
  0.4999998275525098  0.4999999420553555  0.9000291118590978
  0.6666669999999968  0.6666664999999981  0.8540293583899393
  0.1666678482962168  0.6666660687368319  0.8540294124108979
  0.6666665687368306  0.1666660829669439  0.8540294124108979
  0.1666665829669426  0.1666673482962181  0.8540294124108979
  0.8333338854197538  0.8333327946215142  0.9460290102601396
  0.3333328199587401  0.8333343854197526  0.9460290102601396
  0.8333322946215155  0.3333333199587389  0.9460290102601396
  0.3333330000000032  0.3333335000000019  0.9460295547312286
  0.6666669999999968  0.6666664999999981  0.0108028117723912
  0.1666664323138234  0.6666670123094530  0.0108030216541163
  0.6666675123094518  0.1666665553767236  0.0108030216541163
  0.1666670553767223  0.1666659323138246  0.0108030216541163
  0.8333329242785199  0.8333337147478893  0.7892563250705312
  0.3333328609735992  0.8333334242785186  0.7892563250705312
  0.8333332147478906  0.3333333609735979  0.7892563250705312
  0.3333330000000032  0.3333335000000019  0.7892562988646907
 
  0.00000000E+00  0.00000000E+00  0.00000000E+00
  0.00000000E+00  0.00000000E+00  0.00000000E+00
  0.00000000E+00  0.00000000E+00  0.00000000E+00
  0.00000000E+00  0.00000000E+00  0.00000000E+00
  0.00000000E+00  0.00000000E+00  0.00000000E+00
  0.00000000E+00  0.00000000E+00  0.00000000E+00
  0.00000000E+00  0.00000000E+00  0.00000000E+00
  0.00000000E+00  0.00000000E+00  0.00000000E+00
  0.00000000E+00  0.00000000E+00  0.00000000E+00
  0.00000000E+00  0.00000000E+00  0.00000000E+00
  0.00000000E+00  0.00000000E+00  0.00000000E+00
  0.00000000E+00  0.00000000E+00  0.00000000E+00
  0.00000000E+00  0.00000000E+00  0.00000000E+00
  0.00000000E+00  0.00000000E+00  0.00000000E+00
  0.00000000E+00  0.00000000E+00  0.00000000E+00
  0.00000000E+00  0.00000000E+00  0.00000000E+00
  0.00000000E+00  0.00000000E+00  0.00000000E+00
  0.00000000E+00  0.00000000E+00  0.00000000E+00
  0.00000000E+00  0.00000000E+00  0.00000000E+00
  0.00000000E+00  0.00000000E+00  0.00000000E+00
  0.00000000E+00  0.00000000E+00  0.00000000E+00
  0.00000000E+00  0.00000000E+00  0.00000000E+00
  0.00000000E+00  0.00000000E+00  0.00000000E+00
  0.00000000E+00  0.00000000E+00  0.00000000E+00
  0.00000000E+00  0.00000000E+00  0.00000000E+00
  0.00000000E+00  0.00000000E+00  0.00000000E+00
  0.00000000E+00  0.00000000E+00  0.00000000E+00
  0.00000000E+00  0.00000000E+00  0.00000000E+00
  0.00000000E+00  0.00000000E+00  0.00000000E+00
  0.00000000E+00  0.00000000E+00  0.00000000E+00
