Ag1Bi1P2Se6Ba2N1                        
   1.00000000000000     
   -19.8463449999999995    0.0000000000000000    0.0000000000000000
    -9.9231749999999987  -17.1874400000000023    0.0000000000000000
     0.0000000000000000    0.0000000000000000   23.0131329999999998
   Ag   Bi   P    Se   Ba   N 
     9     9    18    54    50    25
Direct
  0.0000000000000000 -0.0000000000000000  0.4153298792864841
  0.6666691522537785  0.0000013023677883  0.4153290715559264
  0.0000012495145248  0.6666691806320687  0.4153286809477682
  0.3333295698534063  0.0000012495145248  0.4153286809477682
  0.6666666666666643  0.6666666666666643  0.4153311054731313
  0.0000013023677883  0.3333295453784332  0.4153290715559264
  0.3333295453784332  0.6666691522537785  0.4153290715559264
  0.6666691806320687  0.3333295698534063  0.4153286809477682
  0.3333333333333357  0.3333333333333357  0.4153290252743924
  0.8888895277063603  0.8888897598856609  0.4430937964295926
  0.5555552404605983  0.8888890434070564  0.4430942357529105
  0.8888887100737239  0.5555557161323383  0.4430942357529105
  0.2222203790746464  0.8888898610396928  0.4430937964295926
  0.5555553827990058  0.5555555737939308  0.4430942357529105
  0.8888894265523284  0.2222207124079789  0.4430937964295926
  0.2222234844777314  0.5555533649193957  0.4430933385121154
  0.5555530315860632  0.2222231506028729  0.4430933385121154
  0.2222228172695404  0.2222238178110639  0.4430933385121154
  0.7777775730165130  0.7777782785853423  0.3864671920412991
  0.4444444817314770  0.7777772396831805  0.3864671920412991
  0.7777786119186748  0.4444441483981445  0.3864671920412991
  0.1111124242658203  0.7777765249012629  0.3864663816122774
  0.4444443438238663  0.4444436455860364  0.3864666007658384
  0.7777768582345954  0.1111110508329167  0.3864663816122774
  0.1111123439234369  0.4444440104905338  0.3864666007658384
  0.4444439789193689  0.1111120105901044  0.3864666007658384
  0.1111113841662491  0.1111120909324878  0.3864663816122774
  0.7777788037980217  0.7777782642835941  0.4865097128070582
  0.4444432652517168  0.7777784704646892  0.4865097128070582
  0.7777785976169266  0.4444429319183843  0.4865097128070582
  0.1111116129867798  0.7777775896781681  0.4865088113388831
  0.4444445332120316  0.4444439601656885  0.4865089343126284
  0.7777779230115006  0.1111107973350521  0.4865088113388831
  0.1111118399556196  0.4444441998786991  0.4865089343126284
  0.4444442934990210  0.1111115066222871  0.4865089343126284
  0.1111111306683846  0.1111112796534473  0.4865088113388831
  0.8796606114884438  0.7854590654764463  0.3555334697344132
  0.5463272431476742  0.7854588671126457  0.3555339337268392
  0.8796629504925436  0.4521225345316993  0.3555328587481476
  0.2129957914972929  0.7854567659026745  0.3555328572371776
  0.5463292572883913  0.4521204962044241  0.3555338250603602
  0.8796618037927295  0.1187879150309429  0.3555331202601271
  0.2129981360925615  0.4521200206263964  0.3555325886290452
  0.5463297606789829  0.1187875138777274  0.3555334800195749
  0.2129963215882740  0.1187895663981237  0.3555327271492590
  0.6682141816424246  0.8796632838258761  0.3555328587481476
  0.3348799897017773  0.8796609448217763  0.3555334697344132
  0.6682135564063476  0.5463275764810067  0.3555339337268392
  0.0015499478429952  0.8796621371260620  0.3555331202601271
  0.3348823921099500  0.5463300940123154  0.3555334800195749
  0.6682137786802697  0.2129966549216065  0.3555327271492590
  0.0015499131738520  0.5463295906217238  0.3555338250603602
  0.3348815099477095  0.2129984694258940  0.3555325886290452
  0.0015471092667072  0.2129961248306254  0.3555328572371776
  0.7854585337793132  0.6682138897396801  0.3555339337268392
  0.4521222011983668  0.6682145149757571  0.3555328587481476
  0.7854587321431138  0.3348803230351098  0.3555334697344132
  0.1187892330647912  0.6682141120136021  0.3555327271492590
  0.4521196872930640  0.3348818432810420  0.3555325886290452
  0.7854564325693421  0.0015474426000397  0.3555328572371776
  0.1187871805443950  0.3348827254432825  0.3555334800195749
  0.4521201628710916  0.0015502465071845  0.3555338250603602
  0.1187875816976104  0.0015502811763277  0.3555331202601271
  0.6795213217405249  0.7630108578369500  0.5139780293066274
  0.3461857630841216  0.7630104738195292  0.5139773962163712
  0.6795213680180283  0.4296769038401531  0.5139811995042748
  0.0128549847111378  0.7630086334082462  0.5139766148021812
  0.3461866542324128  0.4296768553937711  0.5139779220288225
  0.6795213958295542  0.0963427502633844  0.5139790876479130
  0.0128557275556924  0.4296763479057972  0.5139782119924338
  0.3461870624296767  0.0963436297542948  0.5139767693881175
  0.0128561747044011  0.0963416265773553  0.5139797198544713
  0.8908017281418255  0.6795213680180283  0.5139811995042748
  0.5574678204225250  0.6795213217405249  0.5139780293066274
  0.8908037630963491  0.3461857630841216  0.5139773962163712
  0.2241358539070613  0.6795213958295542  0.5139790876479130
  0.5574693078160288  0.3461870624296767  0.5139767693881175
  0.8908021987182436  0.0128561747044011  0.5139797198544713
  0.2241364903738161  0.3461866542324128  0.5139779220288225
  0.5574679245385104  0.0128557275556924  0.5139782119924338
  0.2241363818806089  0.0128549847111378  0.5139766148021812
  0.7630104738195292  0.8908037630963491  0.5139773962163712
  0.4296769038401531  0.8908017281418255  0.5139811995042748
  0.7630108578369500  0.5574678204225250  0.5139780293066274
  0.0963416265773553  0.8908021987182436  0.5139797198544713
  0.4296763479057972  0.5574679245385104  0.5139782119924338
  0.7630086334082462  0.2241363818806089  0.5139766148021812
  0.0963436297542948  0.5574693078160288  0.5139767693881175
  0.4296768553937711  0.2241364903738161  0.5139779220288225
  0.0963427502633844  0.2241358539070613  0.5139790876479130
  0.8666661729065052  0.8666659729168544  0.8356683470171418
  0.6666675786926889  0.8666669843703144  0.8356674001628884
  0.8666672193038938  0.6666671893001170  0.8356674466500917
  0.4666657913959847  0.8666670193038986  0.8356674466500917
  0.6666668000000016  0.6666665999999992  0.8356733344229786
  0.8666671843703097  0.4666654369369966  0.8356674001628884
  0.2666680541766425  0.8666659729065099  0.8356683470171418
  0.4666656369369989  0.6666673786926866  0.8356674001628884
  0.6666673893001194  0.4666655913959824  0.8356674466500917
  0.8666661729168497  0.2666678541766402  0.8356683470171418
  0.0666662501934171  0.8666677086463787  0.8356670425458448
  0.2666678924738561  0.6666666766064921  0.8356709881564881
  0.4666669278939621  0.4666666802791204  0.8356647784579113
  0.6666672547563302  0.2666673295368764  0.8356709494975695
  0.8666679086463739  0.0666660411602040  0.8356670425458448
  0.0666656157067956  0.6666670547563278  0.8356709494975695
  0.2666674203470032  0.4666647287801419  0.8356692409386768
  0.4666649287801442  0.2666678508728547  0.8356692409386768
  0.6666668766064945  0.0666654309196518  0.8356709881564881
  0.0666665918269126  0.4666667278939598  0.8356647784579113
  0.2666680508728571  0.2666672203470009  0.8356692409386768
  0.4666668802791227  0.0666663918269103  0.8356647784579113
  0.0666656309196541  0.2666676924738538  0.8356709881564881
  0.2666675295368788  0.0666654157067933  0.8356709494975695
  0.0666662411602064  0.0666660501934148  0.8356670425458448
  0.9333327950074708  0.9333331258791724  0.9639117410037282
  0.7333335766499283  0.9333326824009452  0.9639128324990114
  0.9333326279156623  0.7333336318497247  0.9639128329574553
  0.5333332286840083  0.9333334313233775  0.9639111882064857
  0.7333340265109235  0.7333343941359223  0.9639127327086457
  0.9333332313233752  0.5333333399926141  0.9639111882064857
  0.3333335402346107  0.9333328279156646  0.9639128329574553
  0.5333313793531520  0.7333342265109258  0.9639127327086457
  0.7333341941359199  0.5333315793531472  0.9639127327086457
  0.9333324824009429  0.3333337409491264  0.9639128324990114
  0.1333338791133616  0.9333329950074731  0.9639117410037282
  0.3333335409491240  0.7333337766499306  0.9639128324990114
  0.5333331399926189  0.5333334286840036  0.9639111882064857
  0.7333334318497223  0.3333337402346130  0.9639128329574553
  0.9333329258791701  0.1333340791133569  0.9639117410037282
  0.1333327569161499  0.7333344602618665  0.9639126886762091
  0.3333340104468773  0.5333321519978280  0.9639121496442795
  0.5333321984957361  0.3333342456853657  0.9639121507828188
  0.7333342602618642  0.1333327828219837  0.9639126886762091
  0.1333333558189031  0.5333323984957313  0.9639121507828188
  0.3333331999999984  0.3333334000000008  0.9639132516979106
  0.5333319519978328  0.1333338375552877  0.9639121496442795
  0.1333336375552924  0.3333342104468797  0.9639121496442795
  0.3333340456853634  0.1333335558188983  0.9639121507828188
  0.1333325828219884  0.1333329569161451  0.9639126886762091
  0.0000000000000000 -0.0000000000000000  0.8999912666982636
  0.8000014923677348 -0.0000020679372539  0.8999913338920437
 -0.0000020182205658  0.8000006195616161  0.8999915532928879
  0.6000000412929877 -0.0000007395685189  0.8999914619394799
  0.8000005188040570  0.8000010036456118  0.8999894223100567
 -0.0000008405503683  0.6000003148648416  0.8999913094350167
  0.4000005256855267 -0.0000008405503683  0.8999913094350167
  0.5999995190948915  0.8000013769225935  0.8999927543690932
  0.8000013769225935  0.5999991039825151  0.8999927543690932
 -0.0000007395685189  0.4000006982755310  0.8999914619394799
  0.2000013986589497 -0.0000020182205658  0.8999915532928879
  0.3999984775503241  0.8000005188040570  0.8999894223100567
  0.5999991039825151  0.5999995190948915  0.8999927543690932
  0.8000010036456118  0.3999984775503241  0.8999894223100567
 -0.0000020679372539  0.2000005755695191  0.8999913338920437
  0.2000005755695191  0.8000014923677348  0.8999913338920437
  0.4000006982755310  0.6000000412929877  0.8999914619394799
  0.6000003148648416  0.4000005256855267  0.8999913094350167
  0.8000006195616161  0.2000013986589497  0.8999915532928879
  0.2000007865314085  0.5999989686000062  0.8999935504775267
  0.3999991136209626  0.3999994581630242  0.8999901393742533
  0.5999989686000062  0.2000002448685925  0.8999935504775267
  0.2000014282160133  0.3999991136209626  0.8999901393742533
  0.3999994581630242  0.2000014282160133  0.8999901393742533
  0.2000002448685925  0.2000007865314085  0.8999935504775267
 
  0.00000000E+00  0.00000000E+00  0.00000000E+00
  0.00000000E+00  0.00000000E+00  0.00000000E+00
  0.00000000E+00  0.00000000E+00  0.00000000E+00
  0.00000000E+00  0.00000000E+00  0.00000000E+00
  0.00000000E+00  0.00000000E+00  0.00000000E+00
  0.00000000E+00  0.00000000E+00  0.00000000E+00
  0.00000000E+00  0.00000000E+00  0.00000000E+00
  0.00000000E+00  0.00000000E+00  0.00000000E+00
  0.00000000E+00  0.00000000E+00  0.00000000E+00
  0.00000000E+00  0.00000000E+00  0.00000000E+00
  0.00000000E+00  0.00000000E+00  0.00000000E+00
  0.00000000E+00  0.00000000E+00  0.00000000E+00
  0.00000000E+00  0.00000000E+00  0.00000000E+00
  0.00000000E+00  0.00000000E+00  0.00000000E+00
  0.00000000E+00  0.00000000E+00  0.00000000E+00
  0.00000000E+00  0.00000000E+00  0.00000000E+00
  0.00000000E+00  0.00000000E+00  0.00000000E+00
  0.00000000E+00  0.00000000E+00  0.00000000E+00
  0.00000000E+00  0.00000000E+00  0.00000000E+00
  0.00000000E+00  0.00000000E+00  0.00000000E+00
  0.00000000E+00  0.00000000E+00  0.00000000E+00
  0.00000000E+00  0.00000000E+00  0.00000000E+00
  0.00000000E+00  0.00000000E+00  0.00000000E+00
  0.00000000E+00  0.00000000E+00  0.00000000E+00
  0.00000000E+00  0.00000000E+00  0.00000000E+00
  0.00000000E+00  0.00000000E+00  0.00000000E+00
  0.00000000E+00  0.00000000E+00  0.00000000E+00
  0.00000000E+00  0.00000000E+00  0.00000000E+00
  0.00000000E+00  0.00000000E+00  0.00000000E+00
  0.00000000E+00  0.00000000E+00  0.00000000E+00
  0.00000000E+00  0.00000000E+00  0.00000000E+00
  0.00000000E+00  0.00000000E+00  0.00000000E+00
  0.00000000E+00  0.00000000E+00  0.00000000E+00
  0.00000000E+00  0.00000000E+00  0.00000000E+00
  0.00000000E+00  0.00000000E+00  0.00000000E+00
  0.00000000E+00  0.00000000E+00  0.00000000E+00
  0.00000000E+00  0.00000000E+00  0.00000000E+00
  0.00000000E+00  0.00000000E+00  0.00000000E+00
  0.00000000E+00  0.00000000E+00  0.00000000E+00
  0.00000000E+00  0.00000000E+00  0.00000000E+00
  0.00000000E+00  0.00000000E+00  0.00000000E+00
  0.00000000E+00  0.00000000E+00  0.00000000E+00
  0.00000000E+00  0.00000000E+00  0.00000000E+00
  0.00000000E+00  0.00000000E+00  0.00000000E+00
  0.00000000E+00  0.00000000E+00  0.00000000E+00
  0.00000000E+00  0.00000000E+00  0.00000000E+00
  0.00000000E+00  0.00000000E+00  0.00000000E+00
  0.00000000E+00  0.00000000E+00  0.00000000E+00
  0.00000000E+00  0.00000000E+00  0.00000000E+00
  0.00000000E+00  0.00000000E+00  0.00000000E+00
  0.00000000E+00  0.00000000E+00  0.00000000E+00
  0.00000000E+00  0.00000000E+00  0.00000000E+00
  0.00000000E+00  0.00000000E+00  0.00000000E+00
  0.00000000E+00  0.00000000E+00  0.00000000E+00
  0.00000000E+00  0.00000000E+00  0.00000000E+00
  0.00000000E+00  0.00000000E+00  0.00000000E+00
  0.00000000E+00  0.00000000E+00  0.00000000E+00
  0.00000000E+00  0.00000000E+00  0.00000000E+00
  0.00000000E+00  0.00000000E+00  0.00000000E+00
  0.00000000E+00  0.00000000E+00  0.00000000E+00
  0.00000000E+00  0.00000000E+00  0.00000000E+00
  0.00000000E+00  0.00000000E+00  0.00000000E+00
  0.00000000E+00  0.00000000E+00  0.00000000E+00
  0.00000000E+00  0.00000000E+00  0.00000000E+00
  0.00000000E+00  0.00000000E+00  0.00000000E+00
  0.00000000E+00  0.00000000E+00  0.00000000E+00
  0.00000000E+00  0.00000000E+00  0.00000000E+00
  0.00000000E+00  0.00000000E+00  0.00000000E+00
  0.00000000E+00  0.00000000E+00  0.00000000E+00
  0.00000000E+00  0.00000000E+00  0.00000000E+00
  0.00000000E+00  0.00000000E+00  0.00000000E+00
  0.00000000E+00  0.00000000E+00  0.00000000E+00
  0.00000000E+00  0.00000000E+00  0.00000000E+00
  0.00000000E+00  0.00000000E+00  0.00000000E+00
  0.00000000E+00  0.00000000E+00  0.00000000E+00
  0.00000000E+00  0.00000000E+00  0.00000000E+00
  0.00000000E+00  0.00000000E+00  0.00000000E+00
  0.00000000E+00  0.00000000E+00  0.00000000E+00
  0.00000000E+00  0.00000000E+00  0.00000000E+00
  0.00000000E+00  0.00000000E+00  0.00000000E+00
  0.00000000E+00  0.00000000E+00  0.00000000E+00
  0.00000000E+00  0.00000000E+00  0.00000000E+00
  0.00000000E+00  0.00000000E+00  0.00000000E+00
  0.00000000E+00  0.00000000E+00  0.00000000E+00
  0.00000000E+00  0.00000000E+00  0.00000000E+00
  0.00000000E+00  0.00000000E+00  0.00000000E+00
  0.00000000E+00  0.00000000E+00  0.00000000E+00
  0.00000000E+00  0.00000000E+00  0.00000000E+00
  0.00000000E+00  0.00000000E+00  0.00000000E+00
  0.00000000E+00  0.00000000E+00  0.00000000E+00
  0.00000000E+00  0.00000000E+00  0.00000000E+00
  0.00000000E+00  0.00000000E+00  0.00000000E+00
  0.00000000E+00  0.00000000E+00  0.00000000E+00
  0.00000000E+00  0.00000000E+00  0.00000000E+00
  0.00000000E+00  0.00000000E+00  0.00000000E+00
  0.00000000E+00  0.00000000E+00  0.00000000E+00
  0.00000000E+00  0.00000000E+00  0.00000000E+00
  0.00000000E+00  0.00000000E+00  0.00000000E+00
  0.00000000E+00  0.00000000E+00  0.00000000E+00
  0.00000000E+00  0.00000000E+00  0.00000000E+00
  0.00000000E+00  0.00000000E+00  0.00000000E+00
  0.00000000E+00  0.00000000E+00  0.00000000E+00
  0.00000000E+00  0.00000000E+00  0.00000000E+00
  0.00000000E+00  0.00000000E+00  0.00000000E+00
  0.00000000E+00  0.00000000E+00  0.00000000E+00
  0.00000000E+00  0.00000000E+00  0.00000000E+00
  0.00000000E+00  0.00000000E+00  0.00000000E+00
  0.00000000E+00  0.00000000E+00  0.00000000E+00
  0.00000000E+00  0.00000000E+00  0.00000000E+00
  0.00000000E+00  0.00000000E+00  0.00000000E+00
  0.00000000E+00  0.00000000E+00  0.00000000E+00
  0.00000000E+00  0.00000000E+00  0.00000000E+00
  0.00000000E+00  0.00000000E+00  0.00000000E+00
  0.00000000E+00  0.00000000E+00  0.00000000E+00
  0.00000000E+00  0.00000000E+00  0.00000000E+00
  0.00000000E+00  0.00000000E+00  0.00000000E+00
  0.00000000E+00  0.00000000E+00  0.00000000E+00
  0.00000000E+00  0.00000000E+00  0.00000000E+00
  0.00000000E+00  0.00000000E+00  0.00000000E+00
  0.00000000E+00  0.00000000E+00  0.00000000E+00
  0.00000000E+00  0.00000000E+00  0.00000000E+00
  0.00000000E+00  0.00000000E+00  0.00000000E+00
  0.00000000E+00  0.00000000E+00  0.00000000E+00
  0.00000000E+00  0.00000000E+00  0.00000000E+00
  0.00000000E+00  0.00000000E+00  0.00000000E+00
  0.00000000E+00  0.00000000E+00  0.00000000E+00
  0.00000000E+00  0.00000000E+00  0.00000000E+00
  0.00000000E+00  0.00000000E+00  0.00000000E+00
  0.00000000E+00  0.00000000E+00  0.00000000E+00
  0.00000000E+00  0.00000000E+00  0.00000000E+00
  0.00000000E+00  0.00000000E+00  0.00000000E+00
  0.00000000E+00  0.00000000E+00  0.00000000E+00
  0.00000000E+00  0.00000000E+00  0.00000000E+00
  0.00000000E+00  0.00000000E+00  0.00000000E+00
  0.00000000E+00  0.00000000E+00  0.00000000E+00
  0.00000000E+00  0.00000000E+00  0.00000000E+00
  0.00000000E+00  0.00000000E+00  0.00000000E+00
  0.00000000E+00  0.00000000E+00  0.00000000E+00
  0.00000000E+00  0.00000000E+00  0.00000000E+00
  0.00000000E+00  0.00000000E+00  0.00000000E+00
  0.00000000E+00  0.00000000E+00  0.00000000E+00
  0.00000000E+00  0.00000000E+00  0.00000000E+00
  0.00000000E+00  0.00000000E+00  0.00000000E+00
  0.00000000E+00  0.00000000E+00  0.00000000E+00
  0.00000000E+00  0.00000000E+00  0.00000000E+00
  0.00000000E+00  0.00000000E+00  0.00000000E+00
  0.00000000E+00  0.00000000E+00  0.00000000E+00
  0.00000000E+00  0.00000000E+00  0.00000000E+00
  0.00000000E+00  0.00000000E+00  0.00000000E+00
  0.00000000E+00  0.00000000E+00  0.00000000E+00
  0.00000000E+00  0.00000000E+00  0.00000000E+00
  0.00000000E+00  0.00000000E+00  0.00000000E+00
  0.00000000E+00  0.00000000E+00  0.00000000E+00
  0.00000000E+00  0.00000000E+00  0.00000000E+00
  0.00000000E+00  0.00000000E+00  0.00000000E+00
  0.00000000E+00  0.00000000E+00  0.00000000E+00
  0.00000000E+00  0.00000000E+00  0.00000000E+00
  0.00000000E+00  0.00000000E+00  0.00000000E+00
  0.00000000E+00  0.00000000E+00  0.00000000E+00
  0.00000000E+00  0.00000000E+00  0.00000000E+00
  0.00000000E+00  0.00000000E+00  0.00000000E+00
  0.00000000E+00  0.00000000E+00  0.00000000E+00
  0.00000000E+00  0.00000000E+00  0.00000000E+00
  0.00000000E+00  0.00000000E+00  0.00000000E+00
  0.00000000E+00  0.00000000E+00  0.00000000E+00
