Ag1Bi1P2Se6Zr1Cl2                       
   1.00000000000000     
    -6.8154960000000004    0.0000000000000000    0.0000000000000000
    -3.4077480000000002   -5.9023919999999999    0.0000000000000000
     0.0000000000000000    0.0000000000000000   23.4408980000000007
   Ag   Bi   P    Se   Cl   Zr
     1     1     2     6     8     4
Direct
  0.0000000000000000  0.0000000000000000  0.4270186803092778
  0.6666659999999993  0.6666669999999968  0.4265319886364801
  0.3333340000000007  0.3333330000000032  0.3789124555802546
  0.3333340000000007  0.3333330000000032  0.4747527395112038
  0.6403290649079264  0.3340828873383017  0.3511739432189423
  0.0255870477537673  0.6403300649079239  0.3511739432189423
  0.3340818873383042  0.0255880477537648  0.3511739432189423
  0.0247114090806962  0.3359748506335716  0.5024137160556618
  0.6393137402857318  0.0247114090806962  0.5024137160556618
  0.3359748506335716  0.6393137402857318  0.5024137160556618
  0.8333327292068188  0.8333336687652223  0.8238566246172604
  0.3333331020279675  0.8333332292068175  0.8238566246172604
  0.8333331687652236  0.3333336020279662  0.8238566246172604
  0.3333330000000032  0.3333335000000019  0.8238566343843312
  0.8333326633221858  0.8333336434542826  0.9747363353431452
  0.3333331932235400  0.8333331633221845  0.9747363353431452
  0.8333331434542839  0.3333336932235387  0.9747363353431452
  0.3333330000000032  0.3333335000000019  0.9747364131132161
  0.0000000000000000  0.0000000000000000  0.8993045097047293
  0.4999994897425324  0.0000008605828477  0.8993045752823658
  0.0000008605828477  0.4999996496746200  0.8993045752823658
  0.4999996496746200  0.4999994897425324  0.8993045752823658
 
  0.00000000E+00  0.00000000E+00  0.00000000E+00
  0.00000000E+00  0.00000000E+00  0.00000000E+00
  0.00000000E+00  0.00000000E+00  0.00000000E+00
  0.00000000E+00  0.00000000E+00  0.00000000E+00
  0.00000000E+00  0.00000000E+00  0.00000000E+00
  0.00000000E+00  0.00000000E+00  0.00000000E+00
  0.00000000E+00  0.00000000E+00  0.00000000E+00
  0.00000000E+00  0.00000000E+00  0.00000000E+00
  0.00000000E+00  0.00000000E+00  0.00000000E+00
  0.00000000E+00  0.00000000E+00  0.00000000E+00
  0.00000000E+00  0.00000000E+00  0.00000000E+00
  0.00000000E+00  0.00000000E+00  0.00000000E+00
  0.00000000E+00  0.00000000E+00  0.00000000E+00
  0.00000000E+00  0.00000000E+00  0.00000000E+00
  0.00000000E+00  0.00000000E+00  0.00000000E+00
  0.00000000E+00  0.00000000E+00  0.00000000E+00
  0.00000000E+00  0.00000000E+00  0.00000000E+00
  0.00000000E+00  0.00000000E+00  0.00000000E+00
  0.00000000E+00  0.00000000E+00  0.00000000E+00
  0.00000000E+00  0.00000000E+00  0.00000000E+00
  0.00000000E+00  0.00000000E+00  0.00000000E+00
  0.00000000E+00  0.00000000E+00  0.00000000E+00
