Ag1Bi1P2Se6Ho2C1                        
   1.00000000000000     
    -6.9632360000000002    0.0000000000000000    0.0000000000000000
    -3.4816180000000001   -6.0303399999999998    0.0000000000000000
     0.0000000000000000    0.0000000000000000   22.6803309999999989
   Ag   Bi   P    Se   C    Ho
     1     1     2     6     4     8
Direct
  0.0000000000000000  0.0000000000000000  0.6162025891863029
  0.6666659999999993  0.6666669999999968  0.5317993398764874
  0.3333340000000007  0.3333330000000032  0.5085428598835381
  0.3333340000000007  0.3333330000000032  0.6136777561641525
  0.6604668214643445  0.2953659886300762  0.4808619889709554
  0.0441661899055819  0.6604678214643420  0.4808619889709554
  0.2953649886300787  0.0441671899055794  0.4808619889709554
  0.9699298981497638  0.3920772844000161  0.6313528645738017
  0.6379928174502201  0.9699298981497638  0.6313528645738017
  0.3920772844000161  0.6379928174502201  0.6313528645738017
  0.0000000000000000  0.0000000000000000  0.8029609163315751
  0.5071520973804025 -0.0001998059107888  0.7996565691188621
 -0.0001998059107888  0.4930477085303860  0.7996565691188621
  0.4930477085303860  0.5071520973804025  0.7996565691188621
  0.6666669999999968  0.6666664999999981  0.7380448415628149
  0.1618673558136885  0.6684771492440176  0.7388350393028745
  0.6684776492440163  0.1696554949422796  0.7388350393028745
  0.1696559949422784  0.1618668558136897  0.7388350393028745
  0.8336384803284076  0.8327282536503281  0.8602908728610574
  0.3336327660212797  0.8336389803284063  0.8602908728610574
  0.8327277536503294  0.3336332660212784  0.8602908728610574
  0.3333330000000032  0.3333335000000019  0.8581899820837309
 
  0.00000000E+00  0.00000000E+00  0.00000000E+00
  0.00000000E+00  0.00000000E+00  0.00000000E+00
  0.00000000E+00  0.00000000E+00  0.00000000E+00
  0.00000000E+00  0.00000000E+00  0.00000000E+00
  0.00000000E+00  0.00000000E+00  0.00000000E+00
  0.00000000E+00  0.00000000E+00  0.00000000E+00
  0.00000000E+00  0.00000000E+00  0.00000000E+00
  0.00000000E+00  0.00000000E+00  0.00000000E+00
  0.00000000E+00  0.00000000E+00  0.00000000E+00
  0.00000000E+00  0.00000000E+00  0.00000000E+00
  0.00000000E+00  0.00000000E+00  0.00000000E+00
  0.00000000E+00  0.00000000E+00  0.00000000E+00
  0.00000000E+00  0.00000000E+00  0.00000000E+00
  0.00000000E+00  0.00000000E+00  0.00000000E+00
  0.00000000E+00  0.00000000E+00  0.00000000E+00
  0.00000000E+00  0.00000000E+00  0.00000000E+00
  0.00000000E+00  0.00000000E+00  0.00000000E+00
  0.00000000E+00  0.00000000E+00  0.00000000E+00
  0.00000000E+00  0.00000000E+00  0.00000000E+00
  0.00000000E+00  0.00000000E+00  0.00000000E+00
  0.00000000E+00  0.00000000E+00  0.00000000E+00
  0.00000000E+00  0.00000000E+00  0.00000000E+00
