Ag1Bi1P2Se6Tc4S8                        
   1.00000000000000     
    -3.1432959999999999   -5.7027099999999997    0.0000000000000000
     3.2668840000000006   -5.7027099999999997    0.0000000000000000
     0.0383120000000000    0.6771490000000000   23.4534100000000016
   Ag   Bi   P    Se   S    Tc
     1     1     2     6     8     4
Direct
  0.0573438057918631  0.0496336699769037  0.4275066907942559
  0.3189872918291438  0.3214618798424252  0.4276136632635246
  0.6552906945304361  0.6735958311743070  0.3771153146220642
  0.6780057189006375  0.6627319550701964  0.4780101900339710
  0.9413260837128762  0.3673146388749683  0.3324053456888341
  0.6367828868035282  0.9887014796244452  0.3431663271856863
  0.3080850318197852  0.6861904253828901  0.3637655623657923
  0.3759969393119600  0.9536028417068731  0.5228581855398237
  0.6956341220996399  0.3177609550847175  0.4904968975975424
  0.9986332930218421  0.6493093283117451  0.5123980403079255
  0.9096626857860067  0.6799231692033723  0.8468353764445680
  0.0904399527234968  0.3194596768889014  0.9501603773580455
  0.4161591085284760  0.1401044665372407  0.8396604659715015
  0.4037367325279190  0.6475755922386650  0.8291059002871398
  0.5963692963824804  0.3518091265047036  0.9678887577942115
  0.0792168037587867  0.8143823282360491  0.9623373163909107
  0.5839456189251310  0.8592837988709343  0.9573333732269511
  0.9208962288584448  0.1850061382960002  0.8346512691556047
  0.6986547439769444  0.5214078867406481  0.8988106417742666
  0.7530591384206847  0.0592762695497848  0.8963793159976541
  0.2470412242160791  0.9400996222650677  0.9006154171202874
  0.3013985980738729  0.4780369196191623  0.8981821674073271
 
  0.00000000E+00  0.00000000E+00  0.00000000E+00
  0.00000000E+00  0.00000000E+00  0.00000000E+00
  0.00000000E+00  0.00000000E+00  0.00000000E+00
  0.00000000E+00  0.00000000E+00  0.00000000E+00
  0.00000000E+00  0.00000000E+00  0.00000000E+00
  0.00000000E+00  0.00000000E+00  0.00000000E+00
  0.00000000E+00  0.00000000E+00  0.00000000E+00
  0.00000000E+00  0.00000000E+00  0.00000000E+00
  0.00000000E+00  0.00000000E+00  0.00000000E+00
  0.00000000E+00  0.00000000E+00  0.00000000E+00
  0.00000000E+00  0.00000000E+00  0.00000000E+00
  0.00000000E+00  0.00000000E+00  0.00000000E+00
  0.00000000E+00  0.00000000E+00  0.00000000E+00
  0.00000000E+00  0.00000000E+00  0.00000000E+00
  0.00000000E+00  0.00000000E+00  0.00000000E+00
  0.00000000E+00  0.00000000E+00  0.00000000E+00
  0.00000000E+00  0.00000000E+00  0.00000000E+00
  0.00000000E+00  0.00000000E+00  0.00000000E+00
  0.00000000E+00  0.00000000E+00  0.00000000E+00
  0.00000000E+00  0.00000000E+00  0.00000000E+00
  0.00000000E+00  0.00000000E+00  0.00000000E+00
  0.00000000E+00  0.00000000E+00  0.00000000E+00
