 Ag Bi P Se Ir Nb                       
   1.00000000000000     
    -6.8164749999999996    0.0000000000000000    0.0000000000000000
    -3.4056150000000001   -5.9138070000000003    0.0000000000000000
     0.3182060000000000   -0.0886740000000000   23.6821429999999999
   Ag   Bi   P    Se   Ir   Nb
     1     1     2    14     1     3
Direct
  0.0902342924261980  0.8646603697643688  0.4730014674848603
  0.6667796692902471  0.6381470122258472  0.4842797277428873
  0.3310632702071264  0.2986850892825346  0.4345154658051390
  0.3215409348885969  0.2981507561473509  0.5300491953679407
  0.6457901188715643  0.2938056975757463  0.4157239420519833
  0.0163391404815365  0.6022850628065394  0.4037655502297751
  0.3337443319004194 -0.0054621507223347  0.4025725747799352
  0.0173407277653282  0.2866674955845788  0.5522338362021049
  0.6277853318614426 -0.0037917106976211  0.5603265249461855
  0.3279891974936222  0.6010692970619534  0.5618347487232622
  0.2977029718051074  0.8160453074126350  0.6984972404202978
  0.8093596815214911  0.7928726610170139  0.7019330531737066
  0.8007597801594115  0.3186853335754616  0.7011690943114237
  0.3056404226479966  0.8115569653209286  0.8459485676840567
  0.2990449237492220  0.3124993318882487  0.8440605131626254
  0.8067980681581317  0.3128862357494649  0.8440640702113738
  0.2854061514644194  0.3171557422320690  0.7012909595869740
  0.8133289507769652  0.7976406953450702  0.8435094568274073
  0.9701253613077958  0.4721974261169429  0.7736425117666345
  0.4703897368859403  0.9770159909347388  0.7722201819373984
  0.9690233846893727  0.9785694631213031  0.7720352214445441
  0.4659985516480719  0.4798209282571690  0.7720047691347962
 
  0.00000000E+00  0.00000000E+00  0.00000000E+00
  0.00000000E+00  0.00000000E+00  0.00000000E+00
  0.00000000E+00  0.00000000E+00  0.00000000E+00
  0.00000000E+00  0.00000000E+00  0.00000000E+00
  0.00000000E+00  0.00000000E+00  0.00000000E+00
  0.00000000E+00  0.00000000E+00  0.00000000E+00
  0.00000000E+00  0.00000000E+00  0.00000000E+00
  0.00000000E+00  0.00000000E+00  0.00000000E+00
  0.00000000E+00  0.00000000E+00  0.00000000E+00
  0.00000000E+00  0.00000000E+00  0.00000000E+00
  0.00000000E+00  0.00000000E+00  0.00000000E+00
  0.00000000E+00  0.00000000E+00  0.00000000E+00
  0.00000000E+00  0.00000000E+00  0.00000000E+00
  0.00000000E+00  0.00000000E+00  0.00000000E+00
  0.00000000E+00  0.00000000E+00  0.00000000E+00
  0.00000000E+00  0.00000000E+00  0.00000000E+00
  0.00000000E+00  0.00000000E+00  0.00000000E+00
  0.00000000E+00  0.00000000E+00  0.00000000E+00
  0.00000000E+00  0.00000000E+00  0.00000000E+00
  0.00000000E+00  0.00000000E+00  0.00000000E+00
  0.00000000E+00  0.00000000E+00  0.00000000E+00
  0.00000000E+00  0.00000000E+00  0.00000000E+00
