Ag2I2Pb1F4                              
   1.00000000000000     
    -4.3668950000000004    0.0000000000000000    0.0000000000000000
     0.0000000000000000   -4.3668950000000004    0.0000000000000000
     0.0000000000000000    0.0000000000000000   23.9935480000000005
   Ag   I    F    Pb
     2     2     4     1
Direct
  0.5000000000000000  0.5000000000000000  0.4925749050389644
  0.0000000000000000  0.0000000000000000  0.4925976913177852
  0.0000000000000000  0.5000000000000000  0.3967022402373495
  0.5000000000000000  0.0000000000000000  0.5881031053340445
  0.0000000000000000  0.0000000000000000  0.8170616849207269
  0.0000000000000000  0.5000000000000000  0.8998307240579528
  0.5000000000000000  0.0000000000000000  0.8998302604973265
  0.0000000000000000  0.0000000000000000  0.9826075697316484
  0.0000000000000000  0.0000000000000000  0.8998963733552658
 
  0.00000000E+00  0.00000000E+00  0.00000000E+00
  0.00000000E+00  0.00000000E+00  0.00000000E+00
  0.00000000E+00  0.00000000E+00  0.00000000E+00
  0.00000000E+00  0.00000000E+00  0.00000000E+00
  0.00000000E+00  0.00000000E+00  0.00000000E+00
  0.00000000E+00  0.00000000E+00  0.00000000E+00
  0.00000000E+00  0.00000000E+00  0.00000000E+00
  0.00000000E+00  0.00000000E+00  0.00000000E+00
  0.00000000E+00  0.00000000E+00  0.00000000E+00
