 Ag Bi P Se Mo                          
   1.00000000000000     
    -6.6487299999999996    0.0000000000000000    0.0000000000000000
    -3.3243659999999995   -5.7579680000000000    0.0000000000000000
     0.0000000000000000    0.0000000000000000   23.3493040000000001
   Ag   Bi   P    Se   Mo
     1     1     2    14     4
Direct
 -0.0000000000000000  0.0000000000000000  0.4283248004483721
  0.6666659999999993  0.6666669999999968  0.4275513392494800
  0.3333340000000007  0.3333330000000032  0.3793723384723759
  0.3333340000000007  0.3333330000000032  0.4761983092454198
  0.6469481300991367  0.3305094748297621  0.3500338779719241
  0.0225413950711037  0.6469491300991342  0.3500338779719241
  0.3305084748297646  0.0225423950711012  0.3500338779719241
  0.0221062283786160  0.3314091727576642  0.5055031009361649
  0.6464845988637197  0.0221062283786160  0.5055031009361649
  0.3314091727576641  0.6464845988637197  0.5055031009361649
 -0.0000000000000000  0.0000000000000000  0.9721256319491334
  0.5000200187779474  0.9999862628134794  0.9721302907356538
  0.9999862628134794  0.4999937184085737  0.9721302907356538
  0.4999937184085737  0.5000200187779474  0.9721302907356538
 -0.0000000000000000  0.0000000000000000  0.8275705009558859
  0.5000069249833183  0.0000119870024568  0.8275739539018749
  0.0000119870024568  0.4999810880142316  0.8275739539018749
  0.4999810880142316  0.5000069249833183  0.8275739539018749
  0.8333456397992591  0.8333199564842387  0.8998509838134680
  0.3333339037165031  0.8333461397992579  0.8998509838134680
  0.8333194564842400  0.3333344037165019  0.8998509838134680
  0.3333330000000032  0.3333335000000019  0.8998587811564331
 
  0.00000000E+00  0.00000000E+00  0.00000000E+00
  0.00000000E+00  0.00000000E+00  0.00000000E+00
  0.00000000E+00  0.00000000E+00  0.00000000E+00
  0.00000000E+00  0.00000000E+00  0.00000000E+00
  0.00000000E+00  0.00000000E+00  0.00000000E+00
  0.00000000E+00  0.00000000E+00  0.00000000E+00
  0.00000000E+00  0.00000000E+00  0.00000000E+00
  0.00000000E+00  0.00000000E+00  0.00000000E+00
  0.00000000E+00  0.00000000E+00  0.00000000E+00
  0.00000000E+00  0.00000000E+00  0.00000000E+00
  0.00000000E+00  0.00000000E+00  0.00000000E+00
  0.00000000E+00  0.00000000E+00  0.00000000E+00
  0.00000000E+00  0.00000000E+00  0.00000000E+00
  0.00000000E+00  0.00000000E+00  0.00000000E+00
  0.00000000E+00  0.00000000E+00  0.00000000E+00
  0.00000000E+00  0.00000000E+00  0.00000000E+00
  0.00000000E+00  0.00000000E+00  0.00000000E+00
  0.00000000E+00  0.00000000E+00  0.00000000E+00
  0.00000000E+00  0.00000000E+00  0.00000000E+00
  0.00000000E+00  0.00000000E+00  0.00000000E+00
  0.00000000E+00  0.00000000E+00  0.00000000E+00
  0.00000000E+00  0.00000000E+00  0.00000000E+00
