Ag1Bi1P2Se6Y2Cl6                        
   1.00000000000000     
    -6.7250649999999998    0.0000000000000000    0.0000000000000000
    -3.3625319999999999   -6.0645449999999999    0.0000000000000000
    -3.1665749999999999    0.0000000000000000   21.4561940000000000
   Ag   Bi   P    Se   Cl   Y 
     1     1     2     6     6     2
Direct
 -0.0912260286046270  0.0049215959637212  0.4550315438923133
  0.6743899465424262  0.6608594986081979  0.4744020629054103
  0.3690866386209596  0.3288499814243749  0.4190161941666726
  0.3172732187079829  0.3375972916168166  0.5243011522983386
  0.6874187566318687  0.3443797520508542  0.3843027479610014
  0.0814485753773767  0.6246364718039308  0.3852302241384922
  0.3756112630465422  0.0223721889583627  0.3975278705973767
  0.9944744831962375  0.3340010318650534  0.5536046939212496
  0.6056060982174848  0.0298764506417077  0.5565291007456377
  0.2966832253670165  0.6463220924142059  0.5510687902082563
  0.4644762329924089  0.3601705895548680  0.9628716331106962
  0.1810180314786396  0.3600961897443951  0.8252617356448084
  0.8863186954018968  0.9999454618612579  0.8264043440454054
  0.1191522106972170  0.9999271560965997  0.9617660644862115
  0.8247374793832890  0.6396713119134271  0.9628844466658963
  0.5411746748311416  0.6398467331658112  0.8252836146310210
  0.8385659025481772  0.3285100909953696  0.8940491260806371
  0.1671225955639759  0.6713501113210535  0.8940449942981067
 
  0.00000000E+00  0.00000000E+00  0.00000000E+00
  0.00000000E+00  0.00000000E+00  0.00000000E+00
  0.00000000E+00  0.00000000E+00  0.00000000E+00
  0.00000000E+00  0.00000000E+00  0.00000000E+00
  0.00000000E+00  0.00000000E+00  0.00000000E+00
  0.00000000E+00  0.00000000E+00  0.00000000E+00
  0.00000000E+00  0.00000000E+00  0.00000000E+00
  0.00000000E+00  0.00000000E+00  0.00000000E+00
  0.00000000E+00  0.00000000E+00  0.00000000E+00
  0.00000000E+00  0.00000000E+00  0.00000000E+00
  0.00000000E+00  0.00000000E+00  0.00000000E+00
  0.00000000E+00  0.00000000E+00  0.00000000E+00
  0.00000000E+00  0.00000000E+00  0.00000000E+00
  0.00000000E+00  0.00000000E+00  0.00000000E+00
  0.00000000E+00  0.00000000E+00  0.00000000E+00
  0.00000000E+00  0.00000000E+00  0.00000000E+00
  0.00000000E+00  0.00000000E+00  0.00000000E+00
  0.00000000E+00  0.00000000E+00  0.00000000E+00
