Ag1Bi1P2Se6Re4S8                        
   1.00000000000000     
    -3.1483400000000001   -5.7101970000000000    0.0000000000000000
     3.2752039999999996   -5.7101970000000000    0.0000000000000000
     2.8852980000000001    0.9693349999999999   23.4994429999999994
   Ag   Bi   P    Se   Re   S 
     1     1     2     6     4     8
Direct
  0.0861214762126627 -0.0871697023078797  0.4145900880949369
  0.2948520705581578  0.3841368806437993  0.4298818887877918
  0.6530719703762496  0.6781140731873139  0.3753072087092440
  0.6866637538321660  0.6313820227846177  0.4792130246801002
  0.9555513395543337  0.3974114671018940  0.3373677132636949
  0.6626675457838118  0.0145605676607915  0.3742127593452323
  0.3302557238941222  0.7200733388038045  0.3263735776207609
  0.3393969922854485  0.9738439895080593  0.4895404044842819
  0.6754419357346467  0.3247663325484891  0.5119296965798262
 -0.0128280339746198  0.6277376163043307  0.5280781796083203
  0.0020930078554288  0.8829013005480322  0.8803217385175854
  0.9847236327637103  0.3124937391155039  0.9125201628828287
  0.5548329992945887  0.3185628137880077  0.8930454813284436
  0.5374192522021891  0.7483532016958880  0.9252338250788963
  0.6547287448384114  0.0484592516505576  0.8220860313035189
  0.8846323936454017  0.5827939946845493  0.9832879535633772
  0.3166013785036118  0.6076921833792586  0.9572201971675458
  0.3941217418192065  0.1127715556137131  0.9672131455236772
  0.6553812771512392  0.5429590911761532  0.8437918493873051
  0.2229290324213107  0.0235892446882312  0.8481572747105491
  0.1452636941498106  0.5184718322090774  0.8381800208506421
  0.8839710710981133  0.0885752052157971  0.9615257672061277
 
  0.00000000E+00  0.00000000E+00  0.00000000E+00
  0.00000000E+00  0.00000000E+00  0.00000000E+00
  0.00000000E+00  0.00000000E+00  0.00000000E+00
  0.00000000E+00  0.00000000E+00  0.00000000E+00
  0.00000000E+00  0.00000000E+00  0.00000000E+00
  0.00000000E+00  0.00000000E+00  0.00000000E+00
  0.00000000E+00  0.00000000E+00  0.00000000E+00
  0.00000000E+00  0.00000000E+00  0.00000000E+00
  0.00000000E+00  0.00000000E+00  0.00000000E+00
  0.00000000E+00  0.00000000E+00  0.00000000E+00
  0.00000000E+00  0.00000000E+00  0.00000000E+00
  0.00000000E+00  0.00000000E+00  0.00000000E+00
  0.00000000E+00  0.00000000E+00  0.00000000E+00
  0.00000000E+00  0.00000000E+00  0.00000000E+00
  0.00000000E+00  0.00000000E+00  0.00000000E+00
  0.00000000E+00  0.00000000E+00  0.00000000E+00
  0.00000000E+00  0.00000000E+00  0.00000000E+00
  0.00000000E+00  0.00000000E+00  0.00000000E+00
  0.00000000E+00  0.00000000E+00  0.00000000E+00
  0.00000000E+00  0.00000000E+00  0.00000000E+00
  0.00000000E+00  0.00000000E+00  0.00000000E+00
  0.00000000E+00  0.00000000E+00  0.00000000E+00
