Ag1Bi1P2Se6Ti1S2                        
   1.00000000000000     
    -6.8165160000000000    0.0000000000000000    0.0000000000000000
    -3.4082580000000000   -5.9032760000000000    0.0000000000000000
     0.0000000000000000    0.0000000000000000   22.8565199999999997
   Ag   Bi   P    Se   S    Ti
     1     1     2     6     8     4
Direct
 -0.0000000000000000  0.0000000000000000  0.4401526399065366
  0.6666659999999993  0.6666669999999968  0.4377939156148403
  0.3333340000000007  0.3333330000000032  0.3888709924334569
  0.3333340000000007  0.3333330000000032  0.4872173992506834
  0.6401021235798817  0.3346969379807393  0.3605406270479819
  0.0251999384393810  0.6401031235798792  0.3605406270479819
  0.3346959379807418  0.0252009384393785  0.3605406270479819
  0.0246459689455235  0.3365326239948375  0.5158152657312147
  0.6388214070596393  0.0246459689455235  0.5158152657312147
  0.3365326239948375  0.6388214070596393  0.5158152657312147
  0.6666669999999968  0.6666664999999981  0.8396592019995578
  0.1855456269091157  0.6777690490341671  0.8331503686414411
  0.6777695490341659  0.1366853240567170  0.8331503686414411
  0.1366858240567158  0.1855451269091169  0.8331503686414411
  0.8138471481150721  0.8637754676054040  0.9644260469591666
  0.3223768842795320  0.8138476481150708  0.9644260469591666
  0.8637749676054053  0.3223773842795307  0.9644260469591666
  0.3333330000000032  0.3333335000000019  0.9578904488399098
 -0.0000000000000000  0.0000000000000000  0.8988900363833385
  0.5356835700319889  0.0001221508584191  0.8987342811969440
  0.0001221508584191  0.4641942791095847  0.8987342811969440
  0.4641942791095847  0.5356835700319889  0.8987342811969440
 
  0.00000000E+00  0.00000000E+00  0.00000000E+00
  0.00000000E+00  0.00000000E+00  0.00000000E+00
  0.00000000E+00  0.00000000E+00  0.00000000E+00
  0.00000000E+00  0.00000000E+00  0.00000000E+00
  0.00000000E+00  0.00000000E+00  0.00000000E+00
  0.00000000E+00  0.00000000E+00  0.00000000E+00
  0.00000000E+00  0.00000000E+00  0.00000000E+00
  0.00000000E+00  0.00000000E+00  0.00000000E+00
  0.00000000E+00  0.00000000E+00  0.00000000E+00
  0.00000000E+00  0.00000000E+00  0.00000000E+00
  0.00000000E+00  0.00000000E+00  0.00000000E+00
  0.00000000E+00  0.00000000E+00  0.00000000E+00
  0.00000000E+00  0.00000000E+00  0.00000000E+00
  0.00000000E+00  0.00000000E+00  0.00000000E+00
  0.00000000E+00  0.00000000E+00  0.00000000E+00
  0.00000000E+00  0.00000000E+00  0.00000000E+00
  0.00000000E+00  0.00000000E+00  0.00000000E+00
  0.00000000E+00  0.00000000E+00  0.00000000E+00
  0.00000000E+00  0.00000000E+00  0.00000000E+00
  0.00000000E+00  0.00000000E+00  0.00000000E+00
  0.00000000E+00  0.00000000E+00  0.00000000E+00
  0.00000000E+00  0.00000000E+00  0.00000000E+00
