Ag1Bi1P2Se6In2Br6                       
   1.00000000000000     
    -6.8187590000000000    0.0000000000000000    0.0000000000000000
    -3.4093789999999999   -5.9064509999999997    0.0000000000000000
    -2.8548469999999999    0.0000000000000000   23.0135089999999991
   Ag   Bi   P    Se   Br   In
     1     1     2     6     6     2
Direct
  0.0795574042586566  0.0073318509881969  0.4465485164920308
  0.6615917145852260  0.6530920498432596  0.4345253095136882
  0.3345986732274964  0.3404279147496366  0.3864975303598308
  0.3076336606495627  0.3263204739505334  0.4848172181481712
  0.6547426498164393  0.3360074692471734  0.3575804008375384
  0.0382528926111829  0.6568057414041604  0.3640804861213336
  0.3534253505174363  0.0299127561375472  0.3550553338781880
  0.9815539996961633  0.3384545557973068  0.5180179826456901
  0.6141719973813144  0.0178821922635711  0.5050326832770724
  0.2985350963122353  0.6274231857905107  0.5170879638544807
  0.3109305203144586  0.9999606441694414  0.9628575909957912
  0.6913707045405560  0.9999584555724105  0.8295129473308037
  0.9732868635071126  0.6623170877995861  0.9628317999384727
  0.3667043274301480  0.6622896183183723  0.8295269270050893
  0.0290260049242698  0.3376326849502690  0.8295280967215690
  0.6356313663172958  0.3376050506093405  0.9628352589794373
  0.6678061292716515  0.6666620856674997  0.8961711304505361
  0.3345126446387931  0.3332501827411987  0.8961672326975474
 
  0.00000000E+00  0.00000000E+00  0.00000000E+00
  0.00000000E+00  0.00000000E+00  0.00000000E+00
  0.00000000E+00  0.00000000E+00  0.00000000E+00
  0.00000000E+00  0.00000000E+00  0.00000000E+00
  0.00000000E+00  0.00000000E+00  0.00000000E+00
  0.00000000E+00  0.00000000E+00  0.00000000E+00
  0.00000000E+00  0.00000000E+00  0.00000000E+00
  0.00000000E+00  0.00000000E+00  0.00000000E+00
  0.00000000E+00  0.00000000E+00  0.00000000E+00
  0.00000000E+00  0.00000000E+00  0.00000000E+00
  0.00000000E+00  0.00000000E+00  0.00000000E+00
  0.00000000E+00  0.00000000E+00  0.00000000E+00
  0.00000000E+00  0.00000000E+00  0.00000000E+00
  0.00000000E+00  0.00000000E+00  0.00000000E+00
  0.00000000E+00  0.00000000E+00  0.00000000E+00
  0.00000000E+00  0.00000000E+00  0.00000000E+00
  0.00000000E+00  0.00000000E+00  0.00000000E+00
  0.00000000E+00  0.00000000E+00  0.00000000E+00
