 Ag Bi P Se Er                          
   1.00000000000000     
    -6.6057959999999998    0.0000000000000000    0.0000000000000000
    -3.3028979999999999   -5.7207869999999996    0.0000000000000000
     0.0000000000000000    0.0000000000000000   23.6079019999999993
   Ag   Bi   P    Se   Er
     2     1     4    12     1
Direct
  0.0000000000000000 -0.0000000000000000  0.4228423507266856
  0.6666659999999993  0.6666669999999968  0.8998579403392991
  0.6666659999999993  0.6666669999999968  0.4231139902992174
  0.3333340000000007  0.3333330000000032  0.3751666501834769
  0.3333340000000007  0.3333330000000032  0.4711434531092854
  0.0000000000000000 -0.0000000000000000  0.8524109962742881
  0.0000000000000000 -0.0000000000000000  0.9473374366049647
  0.6483099996838212  0.3301649937106442  0.3456665694297122
  0.0215240066055367  0.6483109996838187  0.3456665694297122
  0.3301639937106468  0.0215250066055342  0.3456665694297122
  0.0214643590628598  0.3298978248666692  0.5004984225136718
  0.6486378160704709  0.0214643590628598  0.5004984225136718
  0.3298978248666692  0.6486378160704709  0.5004984225136718
  0.6910744978115614  0.9886317990090824  0.8229705062624865
  0.9886317990090824  0.3202937031793632  0.8229705062624865
  0.3202937031793632  0.6910744978115614  0.8229705062624865
  0.3203072390469054  0.9886328129812363  0.9767647298093023
  0.6910599479718582  0.3203072390469054  0.9767647298093023
  0.9886328129812362  0.6910599479718582  0.9767647298093023
  0.3333340000000007  0.3333330000000032  0.8998630051124216
 
  0.00000000E+00  0.00000000E+00  0.00000000E+00
  0.00000000E+00  0.00000000E+00  0.00000000E+00
  0.00000000E+00  0.00000000E+00  0.00000000E+00
  0.00000000E+00  0.00000000E+00  0.00000000E+00
  0.00000000E+00  0.00000000E+00  0.00000000E+00
  0.00000000E+00  0.00000000E+00  0.00000000E+00
  0.00000000E+00  0.00000000E+00  0.00000000E+00
  0.00000000E+00  0.00000000E+00  0.00000000E+00
  0.00000000E+00  0.00000000E+00  0.00000000E+00
  0.00000000E+00  0.00000000E+00  0.00000000E+00
  0.00000000E+00  0.00000000E+00  0.00000000E+00
  0.00000000E+00  0.00000000E+00  0.00000000E+00
  0.00000000E+00  0.00000000E+00  0.00000000E+00
  0.00000000E+00  0.00000000E+00  0.00000000E+00
  0.00000000E+00  0.00000000E+00  0.00000000E+00
  0.00000000E+00  0.00000000E+00  0.00000000E+00
  0.00000000E+00  0.00000000E+00  0.00000000E+00
  0.00000000E+00  0.00000000E+00  0.00000000E+00
  0.00000000E+00  0.00000000E+00  0.00000000E+00
  0.00000000E+00  0.00000000E+00  0.00000000E+00
