 Ag Bi P Se Hg                          
   1.00000000000000     
    -6.6160230000000002    0.0000000000000000    0.0000000000000000
    -3.3080110000000000   -5.7783850000000001    0.0000000000000000
     2.1200749999999999    0.0000020000000000   24.3202609999999986
   Ag   Bi   P    Se   Hg
     1     1     4    12     2
Direct
  0.0423892287941205  0.1110211282883758  0.4849039463199243
  0.5857219371163228  0.6342168273787968  0.3682559822293670
  0.4112350456250471  0.2092908145951359  0.3502675399401540
  0.3445130273555112  0.4262554253300107  0.4919357790011991
  0.4413261953846779  0.5014312318139575  0.9521600154376734
  0.5378259072990578  0.5118128697697534  0.8526869014458455
  0.2776647798510694  0.5362507289892516  0.3035706162370957
  0.5786718489552211 -0.0763608819240455  0.2871877371356698
  0.0517967646284896  0.1671781075274393  0.3744193403560666
  0.3800822815827634  0.1470759801917558  0.5398137726811565
  0.0439736870476247  0.6868288220821911  0.4427687859886079
  0.6254218986393396  0.5012856916460774  0.4997400599859183
  0.3769036096030935  0.2129869362816351  0.9388366393993720
  0.8733785598641055  0.1594084985020061  0.8617951728380392
  0.3088100281447831  0.4937914665216700  0.7806740347570218
  0.6251432628922147  0.7761950505293820  0.8294868116473501
  0.1401951793041262  0.8136118622182538  0.9825254717435354
  0.7369370687328713  0.4815775141031506  0.0027527973273681
  0.1283235412601214  0.3008901093249078  0.8279120889393123
  0.8230201479194401  0.7385838168303214  0.9338595911257959
 
  0.00000000E+00  0.00000000E+00  0.00000000E+00
  0.00000000E+00  0.00000000E+00  0.00000000E+00
  0.00000000E+00  0.00000000E+00  0.00000000E+00
  0.00000000E+00  0.00000000E+00  0.00000000E+00
  0.00000000E+00  0.00000000E+00  0.00000000E+00
  0.00000000E+00  0.00000000E+00  0.00000000E+00
  0.00000000E+00  0.00000000E+00  0.00000000E+00
  0.00000000E+00  0.00000000E+00  0.00000000E+00
  0.00000000E+00  0.00000000E+00  0.00000000E+00
  0.00000000E+00  0.00000000E+00  0.00000000E+00
  0.00000000E+00  0.00000000E+00  0.00000000E+00
  0.00000000E+00  0.00000000E+00  0.00000000E+00
  0.00000000E+00  0.00000000E+00  0.00000000E+00
  0.00000000E+00  0.00000000E+00  0.00000000E+00
  0.00000000E+00  0.00000000E+00  0.00000000E+00
  0.00000000E+00  0.00000000E+00  0.00000000E+00
  0.00000000E+00  0.00000000E+00  0.00000000E+00
  0.00000000E+00  0.00000000E+00  0.00000000E+00
  0.00000000E+00  0.00000000E+00  0.00000000E+00
  0.00000000E+00  0.00000000E+00  0.00000000E+00
