Ag1Bi1P2Se6Mn1H2O2                      
   1.00000000000000     
    -6.6282280000000000    0.0000000000000000    0.0000000000000000
    -3.3141140000000000   -5.7402139999999999    0.0000000000000000
     0.0000000000000000    0.0000000000000000   24.1233080000000015
   Ag   Bi   P    Se   H    Mn   O 
     1     1     2     6     8     4     8
Direct
 -0.0000000000000000  0.0000000000000000  0.4131619322012339
  0.6666659999999993  0.6666669999999968  0.4143033654595703
  0.3333340000000007  0.3333330000000032  0.3669350729627605
  0.3333340000000007  0.3333330000000032  0.4611862644459038
  0.6489237284451164  0.3303928185812763  0.3385428642512833
  0.0206824529736096  0.6489247284451138  0.3385428642512833
  0.3303918185812788  0.0206834529736071  0.3385428642512833
  0.0212333236067099  0.3291297688766090  0.4895469410025549
  0.6496369075166810  0.0212333236067099  0.4895469410025549
  0.3291297688766090  0.6496369075166810  0.4895469410025549
  0.6666669999999968  0.6666664999999981  0.8161154469883528
  0.1666676933523738  0.6666660741870738  0.8161195612986026
  0.6666665741870725  0.1666662324605452  0.8161195612986026
  0.1666667324605439  0.1666671933523751  0.8161195612986026
  0.8333336176751714  0.8333335791108190  0.9838137538316560
  0.3333323032140181  0.8333341176751702  0.9838137538316560
  0.8333330791108202  0.3333328032140168  0.9838137538316560
  0.3333330000000032  0.3333335000000019  0.9838183452173034
 -0.0000000000000000  0.0000000000000000  0.8999358294322349
  0.4999990512477883  0.0000012962507795  0.8999347224393420
  0.0000012962507795  0.4999996525014322  0.8999347224393420
  0.4999996525014322  0.4999990512477883  0.8999347224393420
  0.6666669999999968  0.6666664999999981  0.8562640016059989
  0.1666672701474996  0.6666666825998707  0.8562678922558702
  0.6666671825998695  0.1666660472526225  0.8562678922558702
  0.1666665472526212  0.1666667701475009  0.8562678922558702
  0.8333325696845720  0.8333331471807656  0.9436677375951785
  0.3333337831346704  0.8333330696845708  0.9436677375951785
  0.8333326471807668  0.3333342831346691  0.9436677375951785
  0.3333330000000032  0.3333335000000019  0.9436718988374809
 
  0.00000000E+00  0.00000000E+00  0.00000000E+00
  0.00000000E+00  0.00000000E+00  0.00000000E+00
  0.00000000E+00  0.00000000E+00  0.00000000E+00
  0.00000000E+00  0.00000000E+00  0.00000000E+00
  0.00000000E+00  0.00000000E+00  0.00000000E+00
  0.00000000E+00  0.00000000E+00  0.00000000E+00
  0.00000000E+00  0.00000000E+00  0.00000000E+00
  0.00000000E+00  0.00000000E+00  0.00000000E+00
  0.00000000E+00  0.00000000E+00  0.00000000E+00
  0.00000000E+00  0.00000000E+00  0.00000000E+00
  0.00000000E+00  0.00000000E+00  0.00000000E+00
  0.00000000E+00  0.00000000E+00  0.00000000E+00
  0.00000000E+00  0.00000000E+00  0.00000000E+00
  0.00000000E+00  0.00000000E+00  0.00000000E+00
  0.00000000E+00  0.00000000E+00  0.00000000E+00
  0.00000000E+00  0.00000000E+00  0.00000000E+00
  0.00000000E+00  0.00000000E+00  0.00000000E+00
  0.00000000E+00  0.00000000E+00  0.00000000E+00
  0.00000000E+00  0.00000000E+00  0.00000000E+00
  0.00000000E+00  0.00000000E+00  0.00000000E+00
  0.00000000E+00  0.00000000E+00  0.00000000E+00
  0.00000000E+00  0.00000000E+00  0.00000000E+00
  0.00000000E+00  0.00000000E+00  0.00000000E+00
  0.00000000E+00  0.00000000E+00  0.00000000E+00
  0.00000000E+00  0.00000000E+00  0.00000000E+00
  0.00000000E+00  0.00000000E+00  0.00000000E+00
  0.00000000E+00  0.00000000E+00  0.00000000E+00
  0.00000000E+00  0.00000000E+00  0.00000000E+00
  0.00000000E+00  0.00000000E+00  0.00000000E+00
  0.00000000E+00  0.00000000E+00  0.00000000E+00
