Ag1Bi1P2Se6Nb1S2                        
   1.00000000000000     
    -6.7844759999999997    0.0000000000000000    0.0000000000000000
    -3.3922379999999999   -5.8755280000000001    0.0000000000000000
     0.0000000000000000    0.0000000000000000   23.1204830000000001
   Ag   Bi   P    Se   Nb   S 
     1     1     2     6     4     8
Direct
  0.0000405653727911  0.0000277078613973  0.4322404733111805
  0.6666743513130934  0.6666558738964311  0.4332441018699266
  0.3333749106723072  0.3333138343216624  0.3845543997986809
  0.3333816422857521  0.3332930755329881  0.4818757097403953
  0.6410493390281548  0.3343360062429365  0.3561092626576192
  0.0245806305576487  0.6410777882560426  0.3561102807548669
  0.3343665914978006  0.0245660452309737  0.3561045140256026
  0.0246931917997170  0.3341428208968954  0.5101862028796871
  0.6411486525394912  0.0246991715131549  0.5101781555965502
  0.3341793125376897  0.6411370833858352  0.5101870888095230
 -0.0207261719085770  0.0031415576685944  0.8986660857907269
  0.5309324658494419 -0.0133383692477487  0.8987535708163166
  0.0060232400311793  0.4584471643812477  0.9005406700940565
  0.4629840122070585  0.5305888615737369  0.8987027831314803
  0.6783867197396624  0.6652456465273034  0.9657598720321268
  0.1766789239193000  0.6776685986180810  0.9676268677725653
  0.6645455513343244  0.1629051707648599  0.9663733949007177
  0.1585152523723535  0.1682114123107344  0.9680915993501215
  0.8206046592701809  0.8496332507175930  0.8291422167674575
  0.3337572069738010  0.8284200126403807  0.8313945744474081
  0.8588231102506612  0.3236062086662341  0.8300766092455221
  0.3293178423561750  0.3455550782406656  0.8326817686894404
 
  0.00000000E+00  0.00000000E+00  0.00000000E+00
  0.00000000E+00  0.00000000E+00  0.00000000E+00
  0.00000000E+00  0.00000000E+00  0.00000000E+00
  0.00000000E+00  0.00000000E+00  0.00000000E+00
  0.00000000E+00  0.00000000E+00  0.00000000E+00
  0.00000000E+00  0.00000000E+00  0.00000000E+00
  0.00000000E+00  0.00000000E+00  0.00000000E+00
  0.00000000E+00  0.00000000E+00  0.00000000E+00
  0.00000000E+00  0.00000000E+00  0.00000000E+00
  0.00000000E+00  0.00000000E+00  0.00000000E+00
  0.00000000E+00  0.00000000E+00  0.00000000E+00
  0.00000000E+00  0.00000000E+00  0.00000000E+00
  0.00000000E+00  0.00000000E+00  0.00000000E+00
  0.00000000E+00  0.00000000E+00  0.00000000E+00
  0.00000000E+00  0.00000000E+00  0.00000000E+00
  0.00000000E+00  0.00000000E+00  0.00000000E+00
  0.00000000E+00  0.00000000E+00  0.00000000E+00
  0.00000000E+00  0.00000000E+00  0.00000000E+00
  0.00000000E+00  0.00000000E+00  0.00000000E+00
  0.00000000E+00  0.00000000E+00  0.00000000E+00
  0.00000000E+00  0.00000000E+00  0.00000000E+00
  0.00000000E+00  0.00000000E+00  0.00000000E+00
