 Ag Bi P Se I                           
   1.00000000000000     
   -13.1250900000000001    0.0000000000000000    0.0000000000000000
   -17.5001199999999990  -17.5001199999999990    0.0000000000000000
     0.0000000000000000    0.0000000000000000   23.6241020000000006
   Ag   Bi   P    Se   I 
    30     6    12    36    24
Direct
 -0.0063352996743105  0.0039205590419918  0.4035452067890280
  0.4936404435079139  0.0039351414111073  0.4035513642819110
  0.6603321265861343  0.6706027944358824  0.4035551079809471
  0.1603235390062663  0.6706054950522211  0.4035534228658693
  0.8269540705460328  0.3372427757662994  0.4035567527563330
  0.3269738295747445  0.3372574983451520  0.4035548680019617
 -0.0000085008709847  0.8750099130682016  0.9003225037930556
  0.6666510511480471  0.8750511955287718  0.9002883002027640
 -0.0000304772627151  0.6250204648237253  0.9003148783991918
  0.3333091603257113  0.8749605561365380  0.9002687462121882
  0.6666608089728254  0.6250517934704334  0.9002803391597477
  0.0000031980635449  0.3750101688011970  0.9003308080055006
  0.3333545927642221  0.6249254992927775  0.9002768742420203
  0.6666697283536835  0.3750333685111513  0.9002691101076759
 -0.0000081277476790  0.1250058019205142  0.9003154367250763
  0.3332922935793347  0.3749930244796258  0.9002551776032636
  0.6666446823823140  0.1250641426416327  0.9002837321105607
  0.3333367051753184  0.1249492460904471  0.9002778425853697
  0.0000081720458909 -0.0000036196365060  0.8989602848349834
  0.6666260507249017  0.0000701084777647  0.8990285861785757
 -0.0000160577454469  0.7500193747781350  0.8989792290726717
  0.3333374269741592 -0.0000483893641876  0.8989922857966351
  0.6667064801641789  0.7500295236114153  0.8989977717393921
 -0.0000099074115523  0.5000026816812674  0.8989613728199655
  0.3333628048609025  0.7499345871673410  0.8990126407312007
  0.6666705224166057  0.5000441883703134  0.8990333444058581
  0.0000067835839562  0.2499938690652262  0.8989660619915875
  0.3333031064995483  0.4999776458073698  0.8990217154888444
  0.6666136892738614  0.2500865875388475  0.8990012570217902
  0.3332605949341083  0.2499680396031752  0.8990027458313499
  0.8825139225372287  0.8901036297274951  0.4325010761014395
  0.3825450067576554  0.8901006722096305  0.4325105561340819
  0.5491899180317964  0.5567726914657802  0.4325026990910501
  0.0492344159750632  0.5567492431031109  0.4325037733735488
  0.7158732812050890  0.2234248350103341  0.4325172500388456
  0.2158314682005081  0.2234518702545797  0.4325062424715594
  0.7768191037797436  0.7796036731150168  0.3772288134739229
  0.2767994878889168  0.7796164584065759  0.3772292174011051
  0.9434599301036779  0.4462853881414351  0.3772340280276889
  0.4434858546720331  0.4462725571661431  0.3772337484010630
  0.6101217282395783  0.1129484714451330  0.3772344051161490
  0.1101395459881494  0.1129418332673174  0.3772328398339936
  0.7835004295353309  0.7743174072118413  0.4739135139495865
  0.2834693596938221  0.7743333654656458  0.4739139490203796
  0.9501341204064971  0.4410065283776380  0.4739189871048977
  0.4501620354557063  0.4409912800080128  0.4739190033304392
  0.6167989866712381  0.1076634785644570  0.4739180320992611
  0.1168183443351917  0.1076595170314776  0.4739173560701974
  0.9218097163200850  0.7890595881005319  0.3454019107179476
  0.4218007795811759  0.7890685586367472  0.3454098570458051
  0.5884846730581639  0.4557219855623283  0.3454052953969707
  0.0884736249919778  0.4557238417528008  0.3454024561860886
  0.7551197255181454  0.1224015518691266  0.3454122682782869
  0.2551207428135462  0.1224047562136504  0.3454075029424482
  0.5547595280088155  0.8844694906445240  0.3506591427497081
  0.0547410280209279  0.8844757086058623  0.3506538247002359
  0.7214101215519488  0.5511521514843388  0.3506597540810475
  0.2214347641589043  0.5511387744980658  0.3506606951432224
  0.8880800541093350  0.2177936599898956  0.3506544393063727
  0.3880674245675960  0.2178103277806556  0.3506570214665905
  0.8394057610901617  0.6754585791568344  0.3450560013121538
  0.3393831804161811  0.6754725203362640  0.3450531158318526
  0.5060557495231560  0.3421287735953337  0.3450675950647333
  0.0060128470776153  0.3421460115213936  0.3450672178152160
  0.6727033726777498  0.0088047719310878  0.3450585729174558
  0.1727348431600925  0.0087919529490887  0.3450635269593150
  0.6391394229717124  0.7614288976169357  0.4976879866006105
  0.1391080359303460  0.7614445623104034  0.4976862535124194
  0.8057748713813913  0.4281177572047543  0.4976918249279165
  0.3058096669228021  0.4280966044435841  0.4976923590219481
  0.9724728718750936  0.0947607307148841  0.4976927009954594
  0.4724321998676213  0.0947804764391333  0.4976914063678736
  0.0094417722950903  0.6725238560696348  0.4974737483757278
  0.5094051639559752  0.6725387523225030  0.4974787614176995
  0.6761017023593902  0.3391965441716471  0.4974842299613419
  0.1760729335353335  0.3392105023126557  0.4974834813398664
  0.8427398374822251  0.0058699777728597  0.4974771556114144
  0.3427636565648750  0.0058699124092227  0.4974785541522528
  0.7102691290854972  0.8801055127781137  0.5057947784416083
  0.2102459563785813  0.8801200794223780  0.5057923529241500
  0.8769153850905987  0.5467940185369552  0.5057911260454317
  0.3769308194379347  0.5467800148424048  0.5057955263249801
  0.5435765789984269  0.2134512442530449  0.5057948742721524
  0.0435840425134425  0.2134484572585660  0.5057962169722307
  0.8332834234327653  0.8750436006020768  0.8179085319418183
  0.5000139817614219  0.8749895748492046  0.8178886952677045
  0.8333403291814123  0.6250090511079542  0.8178823526381861
  0.1666761182193881  0.8749656030657184  0.8178933748241707
  0.5000211695785455  0.6249844284720830  0.8179008534235935
  0.8333290708652844  0.3750350589968808  0.8179060965802648
  0.1666262757633153  0.6250004064565556  0.8178979426727802
  0.4999532941974659  0.3750413715509131  0.8178808056337257
  0.8333122841476193  0.1250356595492564  0.8179030137237709
  0.1666608408372210  0.3749804463561449  0.8178849142551663
  0.4999978714114287  0.1250035472676643  0.8178945382269588
  0.1666631120082956  0.1249853538435186  0.8178878638946548
  0.8333253770496729  0.0000293984327275  0.9814392196892945
  0.4999734568830081  0.0000072272125638  0.9814470278847178
  0.8333205883399027  0.7500266728646056  0.9814448823611455
  0.1666667526643210 -0.0000161345042238  0.9814312559224019
  0.5000000149432831  0.7500132044017516  0.9814343350032396
  0.8333310965953367  0.5000346943984557  0.9814454403938758
  0.1666947046188379  0.7499630668734948  0.9814342260119758
  0.5000213975779894  0.4999785036390806  0.9814499089304927
  0.8333224392041265  0.2500224395771826  0.9814384516167972
  0.1666309540318236  0.4999983092865724  0.9814351649611465
  0.4999304868998625  0.2500376802753752  0.9814189628123862
  0.1666545462670006  0.2499809940267791  0.9814426158951418
 
  0.00000000E+00  0.00000000E+00  0.00000000E+00
  0.00000000E+00  0.00000000E+00  0.00000000E+00
  0.00000000E+00  0.00000000E+00  0.00000000E+00
  0.00000000E+00  0.00000000E+00  0.00000000E+00
  0.00000000E+00  0.00000000E+00  0.00000000E+00
  0.00000000E+00  0.00000000E+00  0.00000000E+00
  0.00000000E+00  0.00000000E+00  0.00000000E+00
  0.00000000E+00  0.00000000E+00  0.00000000E+00
  0.00000000E+00  0.00000000E+00  0.00000000E+00
  0.00000000E+00  0.00000000E+00  0.00000000E+00
  0.00000000E+00  0.00000000E+00  0.00000000E+00
  0.00000000E+00  0.00000000E+00  0.00000000E+00
  0.00000000E+00  0.00000000E+00  0.00000000E+00
  0.00000000E+00  0.00000000E+00  0.00000000E+00
  0.00000000E+00  0.00000000E+00  0.00000000E+00
  0.00000000E+00  0.00000000E+00  0.00000000E+00
  0.00000000E+00  0.00000000E+00  0.00000000E+00
  0.00000000E+00  0.00000000E+00  0.00000000E+00
  0.00000000E+00  0.00000000E+00  0.00000000E+00
  0.00000000E+00  0.00000000E+00  0.00000000E+00
  0.00000000E+00  0.00000000E+00  0.00000000E+00
  0.00000000E+00  0.00000000E+00  0.00000000E+00
  0.00000000E+00  0.00000000E+00  0.00000000E+00
  0.00000000E+00  0.00000000E+00  0.00000000E+00
  0.00000000E+00  0.00000000E+00  0.00000000E+00
  0.00000000E+00  0.00000000E+00  0.00000000E+00
  0.00000000E+00  0.00000000E+00  0.00000000E+00
  0.00000000E+00  0.00000000E+00  0.00000000E+00
  0.00000000E+00  0.00000000E+00  0.00000000E+00
  0.00000000E+00  0.00000000E+00  0.00000000E+00
  0.00000000E+00  0.00000000E+00  0.00000000E+00
  0.00000000E+00  0.00000000E+00  0.00000000E+00
  0.00000000E+00  0.00000000E+00  0.00000000E+00
  0.00000000E+00  0.00000000E+00  0.00000000E+00
  0.00000000E+00  0.00000000E+00  0.00000000E+00
  0.00000000E+00  0.00000000E+00  0.00000000E+00
  0.00000000E+00  0.00000000E+00  0.00000000E+00
  0.00000000E+00  0.00000000E+00  0.00000000E+00
  0.00000000E+00  0.00000000E+00  0.00000000E+00
  0.00000000E+00  0.00000000E+00  0.00000000E+00
  0.00000000E+00  0.00000000E+00  0.00000000E+00
  0.00000000E+00  0.00000000E+00  0.00000000E+00
  0.00000000E+00  0.00000000E+00  0.00000000E+00
  0.00000000E+00  0.00000000E+00  0.00000000E+00
  0.00000000E+00  0.00000000E+00  0.00000000E+00
  0.00000000E+00  0.00000000E+00  0.00000000E+00
  0.00000000E+00  0.00000000E+00  0.00000000E+00
  0.00000000E+00  0.00000000E+00  0.00000000E+00
  0.00000000E+00  0.00000000E+00  0.00000000E+00
  0.00000000E+00  0.00000000E+00  0.00000000E+00
  0.00000000E+00  0.00000000E+00  0.00000000E+00
  0.00000000E+00  0.00000000E+00  0.00000000E+00
  0.00000000E+00  0.00000000E+00  0.00000000E+00
  0.00000000E+00  0.00000000E+00  0.00000000E+00
  0.00000000E+00  0.00000000E+00  0.00000000E+00
  0.00000000E+00  0.00000000E+00  0.00000000E+00
  0.00000000E+00  0.00000000E+00  0.00000000E+00
  0.00000000E+00  0.00000000E+00  0.00000000E+00
  0.00000000E+00  0.00000000E+00  0.00000000E+00
  0.00000000E+00  0.00000000E+00  0.00000000E+00
  0.00000000E+00  0.00000000E+00  0.00000000E+00
  0.00000000E+00  0.00000000E+00  0.00000000E+00
  0.00000000E+00  0.00000000E+00  0.00000000E+00
  0.00000000E+00  0.00000000E+00  0.00000000E+00
  0.00000000E+00  0.00000000E+00  0.00000000E+00
  0.00000000E+00  0.00000000E+00  0.00000000E+00
  0.00000000E+00  0.00000000E+00  0.00000000E+00
  0.00000000E+00  0.00000000E+00  0.00000000E+00
  0.00000000E+00  0.00000000E+00  0.00000000E+00
  0.00000000E+00  0.00000000E+00  0.00000000E+00
  0.00000000E+00  0.00000000E+00  0.00000000E+00
  0.00000000E+00  0.00000000E+00  0.00000000E+00
  0.00000000E+00  0.00000000E+00  0.00000000E+00
  0.00000000E+00  0.00000000E+00  0.00000000E+00
  0.00000000E+00  0.00000000E+00  0.00000000E+00
  0.00000000E+00  0.00000000E+00  0.00000000E+00
  0.00000000E+00  0.00000000E+00  0.00000000E+00
  0.00000000E+00  0.00000000E+00  0.00000000E+00
  0.00000000E+00  0.00000000E+00  0.00000000E+00
  0.00000000E+00  0.00000000E+00  0.00000000E+00
  0.00000000E+00  0.00000000E+00  0.00000000E+00
  0.00000000E+00  0.00000000E+00  0.00000000E+00
  0.00000000E+00  0.00000000E+00  0.00000000E+00
  0.00000000E+00  0.00000000E+00  0.00000000E+00
  0.00000000E+00  0.00000000E+00  0.00000000E+00
  0.00000000E+00  0.00000000E+00  0.00000000E+00
  0.00000000E+00  0.00000000E+00  0.00000000E+00
  0.00000000E+00  0.00000000E+00  0.00000000E+00
  0.00000000E+00  0.00000000E+00  0.00000000E+00
  0.00000000E+00  0.00000000E+00  0.00000000E+00
  0.00000000E+00  0.00000000E+00  0.00000000E+00
  0.00000000E+00  0.00000000E+00  0.00000000E+00
  0.00000000E+00  0.00000000E+00  0.00000000E+00
  0.00000000E+00  0.00000000E+00  0.00000000E+00
  0.00000000E+00  0.00000000E+00  0.00000000E+00
  0.00000000E+00  0.00000000E+00  0.00000000E+00
  0.00000000E+00  0.00000000E+00  0.00000000E+00
  0.00000000E+00  0.00000000E+00  0.00000000E+00
  0.00000000E+00  0.00000000E+00  0.00000000E+00
  0.00000000E+00  0.00000000E+00  0.00000000E+00
  0.00000000E+00  0.00000000E+00  0.00000000E+00
  0.00000000E+00  0.00000000E+00  0.00000000E+00
  0.00000000E+00  0.00000000E+00  0.00000000E+00
  0.00000000E+00  0.00000000E+00  0.00000000E+00
  0.00000000E+00  0.00000000E+00  0.00000000E+00
  0.00000000E+00  0.00000000E+00  0.00000000E+00
  0.00000000E+00  0.00000000E+00  0.00000000E+00
  0.00000000E+00  0.00000000E+00  0.00000000E+00
