Ag1Bi1P2Se6Ni1Cl2                       
   1.00000000000000     
    -6.9093559999999998    0.0000000000000000    0.0000000000000000
    -3.4546779999999999   -5.9836780000000003    0.0000000000000000
     0.0000000000000000    0.0000000000000000   22.6135109999999990
   Ag   Bi   P    Se   Cl   Ni
     1     1     2     6     8     4
Direct
  0.0000000000000000 -0.0000000000000000  0.4400034150023107
  0.6666659999999993  0.6666669999999968  0.4433616824249251
  0.3333340000000007  0.3333330000000032  0.3935746705448044
  0.3333340000000007  0.3333330000000032  0.4926089345443146
  0.6354282856450317  0.3381270647230650  0.3656208501443859
  0.0264436496319056  0.6354292856450292  0.3656208501443859
  0.3381260647230674  0.0264446496319031  0.3656208501443859
  0.0262051432516313  0.3381313968694126  0.5204804117351310
  0.6356634598789557  0.0262051432516313  0.5204804117351310
  0.3381313968694126  0.6356634598789558  0.5204804117351310
  0.8333344630247715  0.8333341848388240  0.9556061765407212
  0.3333308521364134  0.8333349630247703  0.9556061765407212
  0.8333336848388253  0.3333313521364122  0.9556061765407212
  0.3333330000000032  0.3333335000000019  0.9556075049079801
  0.6666669999999968  0.6666664999999981  0.8423226404203374
  0.1666669356503918  0.6666665652867626  0.8423218910243517
  0.6666670652867613  0.1666664990628386  0.8423218910243517
  0.1666669990628373  0.1666664356503930  0.8423218910243517
  0.0000000000000000 -0.0000000000000000  0.8989613068453913
  0.4999998124841000  0.0000016995385790  0.8989635665038643
  0.0000016995385790  0.4999984879773209  0.8989635665038643
  0.4999984879773209  0.4999998124841000  0.8989635665038643
 
  0.00000000E+00  0.00000000E+00  0.00000000E+00
  0.00000000E+00  0.00000000E+00  0.00000000E+00
  0.00000000E+00  0.00000000E+00  0.00000000E+00
  0.00000000E+00  0.00000000E+00  0.00000000E+00
  0.00000000E+00  0.00000000E+00  0.00000000E+00
  0.00000000E+00  0.00000000E+00  0.00000000E+00
  0.00000000E+00  0.00000000E+00  0.00000000E+00
  0.00000000E+00  0.00000000E+00  0.00000000E+00
  0.00000000E+00  0.00000000E+00  0.00000000E+00
  0.00000000E+00  0.00000000E+00  0.00000000E+00
  0.00000000E+00  0.00000000E+00  0.00000000E+00
  0.00000000E+00  0.00000000E+00  0.00000000E+00
  0.00000000E+00  0.00000000E+00  0.00000000E+00
  0.00000000E+00  0.00000000E+00  0.00000000E+00
  0.00000000E+00  0.00000000E+00  0.00000000E+00
  0.00000000E+00  0.00000000E+00  0.00000000E+00
  0.00000000E+00  0.00000000E+00  0.00000000E+00
  0.00000000E+00  0.00000000E+00  0.00000000E+00
  0.00000000E+00  0.00000000E+00  0.00000000E+00
  0.00000000E+00  0.00000000E+00  0.00000000E+00
  0.00000000E+00  0.00000000E+00  0.00000000E+00
  0.00000000E+00  0.00000000E+00  0.00000000E+00
