 Ag Bi P Se Ta                          
   1.00000000000000     
    -6.9483300000000003    0.0000000000000000    0.0000000000000000
    -3.4741640000000005   -6.0174320000000003    0.0000000000000000
     0.0000000000000000    0.0000000000000000   23.3551630000000010
   Ag   Bi   P    Se   Ta
     1     1     2    14     4
Direct
 -0.0000000000000000  0.0000000000000000  0.4117805181476636
  0.6666659999999993  0.6666669999999968  0.4326577270153958
  0.3333340000000007  0.3333330000000032  0.3825053627259135
  0.3333340000000007  0.3333330000000032  0.4785192578096794
  0.6293992733291311  0.3456093554168139  0.3549974344757099
  0.0249903712540575  0.6294002733291286  0.3549974344757099
  0.3456083554168164  0.0249913712540550  0.3549974344757099
  0.0271805786631549  0.3382969258077099  0.5051546245634854
  0.6345224955291352  0.0271805786631549  0.5051546245634854
  0.3382969258077099  0.6345224955291352  0.5051546245634854
  0.8331047360091764  0.8331057069703086  0.9685507189045487
  0.3337890570205164  0.8331052360091752  0.9685507189045487
  0.8331052069703099  0.3337895570205152  0.9685507189045487
  0.3333330000000032  0.3333335000000019  0.9719246364185228
  0.8331345276238308  0.8331331756046554  0.8296680015408840
  0.3337317967715219  0.8331350276238295  0.8296680015408840
  0.8331326756046566  0.3337322967715208  0.8296680015408840
  0.3333330000000032  0.3333335000000019  0.8262569057622228
 -0.0000000000000000  0.0000000000000000  0.8991330297823112
  0.4991728420422011  0.0016555540359505  0.8991052591964183
  0.0016555540359505  0.4991716039218486  0.8991052591964183
  0.4991716039218486  0.4991728420422011  0.8991052591964183
 
  0.00000000E+00  0.00000000E+00  0.00000000E+00
  0.00000000E+00  0.00000000E+00  0.00000000E+00
  0.00000000E+00  0.00000000E+00  0.00000000E+00
  0.00000000E+00  0.00000000E+00  0.00000000E+00
  0.00000000E+00  0.00000000E+00  0.00000000E+00
  0.00000000E+00  0.00000000E+00  0.00000000E+00
  0.00000000E+00  0.00000000E+00  0.00000000E+00
  0.00000000E+00  0.00000000E+00  0.00000000E+00
  0.00000000E+00  0.00000000E+00  0.00000000E+00
  0.00000000E+00  0.00000000E+00  0.00000000E+00
  0.00000000E+00  0.00000000E+00  0.00000000E+00
  0.00000000E+00  0.00000000E+00  0.00000000E+00
  0.00000000E+00  0.00000000E+00  0.00000000E+00
  0.00000000E+00  0.00000000E+00  0.00000000E+00
  0.00000000E+00  0.00000000E+00  0.00000000E+00
  0.00000000E+00  0.00000000E+00  0.00000000E+00
  0.00000000E+00  0.00000000E+00  0.00000000E+00
  0.00000000E+00  0.00000000E+00  0.00000000E+00
  0.00000000E+00  0.00000000E+00  0.00000000E+00
  0.00000000E+00  0.00000000E+00  0.00000000E+00
  0.00000000E+00  0.00000000E+00  0.00000000E+00
  0.00000000E+00  0.00000000E+00  0.00000000E+00
