 Ag Bi P Se Pd S                        
   1.00000000000000     
    -6.8567229999999997    0.0000000000000000    0.0000000000000000
    -3.4283619999999995   -5.9380959999999998    0.0000000000000000
     0.0000000000000000    0.0000000000000000   28.5698760000000007
   Ag   Bi   P    Se   Pd   S 
     1     1     4     6     3     8
Direct
  0.0000000000000000 -0.0000000000000000  0.3473070075921569
  0.6666659999999993  0.6666669999999968  0.3492806029264381
  0.3333340000000007  0.3333330000000032  0.3097878965789791
  0.3333340000000007  0.3333330000000032  0.3883724432571727
  0.6666659999999993  0.6666669999999968  0.9869681060916561
  0.3333340000000007  0.3333330000000032  0.8139797351382487
  0.6376299031567559  0.3368344619660605  0.2872023693471285
  0.0255346348771860  0.6376309031567534  0.2872023693471285
  0.3368334619660631  0.0255356348771835  0.2872023693471285
  0.0258912779982164  0.3355820130201405  0.4107880938939622
  0.6385267089816430  0.0258912779982164  0.4107880938939622
  0.3355820130201405  0.6385267089816430  0.4107880938939622
  0.5000491399753237  0.4999474172110623  0.9004705990073951
  0.0000034428136141  0.5000491399753237  0.9004705990073951
  0.4999474172110623  0.0000034428136141  0.9004705990073951
  0.6666659999999993  0.6666669999999968  0.0533970893196478
  0.8186546890241074  0.3627861909903546  0.9470195731351959
  0.3627851909903501  0.8185591199855384  0.9470195731351959
  0.8185581199855410  0.8186556890241049  0.9470195731351959
  0.1814397588751548  0.6372193246041450  0.8539254777968990
  0.6372203246041496  0.1813409165207003  0.8539254777968990
  0.1813419165206977  0.1814387588751573  0.8539254777968990
  0.3333340000000007  0.3333330000000032  0.7475629808028914
 
  0.00000000E+00  0.00000000E+00  0.00000000E+00
  0.00000000E+00  0.00000000E+00  0.00000000E+00
  0.00000000E+00  0.00000000E+00  0.00000000E+00
  0.00000000E+00  0.00000000E+00  0.00000000E+00
  0.00000000E+00  0.00000000E+00  0.00000000E+00
  0.00000000E+00  0.00000000E+00  0.00000000E+00
  0.00000000E+00  0.00000000E+00  0.00000000E+00
  0.00000000E+00  0.00000000E+00  0.00000000E+00
  0.00000000E+00  0.00000000E+00  0.00000000E+00
  0.00000000E+00  0.00000000E+00  0.00000000E+00
  0.00000000E+00  0.00000000E+00  0.00000000E+00
  0.00000000E+00  0.00000000E+00  0.00000000E+00
  0.00000000E+00  0.00000000E+00  0.00000000E+00
  0.00000000E+00  0.00000000E+00  0.00000000E+00
  0.00000000E+00  0.00000000E+00  0.00000000E+00
  0.00000000E+00  0.00000000E+00  0.00000000E+00
  0.00000000E+00  0.00000000E+00  0.00000000E+00
  0.00000000E+00  0.00000000E+00  0.00000000E+00
  0.00000000E+00  0.00000000E+00  0.00000000E+00
  0.00000000E+00  0.00000000E+00  0.00000000E+00
  0.00000000E+00  0.00000000E+00  0.00000000E+00
  0.00000000E+00  0.00000000E+00  0.00000000E+00
  0.00000000E+00  0.00000000E+00  0.00000000E+00
