 Ag I H Sr                              
   1.00000000000000     
    -4.2382220000000004    0.0000000000000000    0.0000000000000000
     0.0000000000000000   -4.2382220000000004    0.0000000000000000
     0.0000000000000000    0.0000000000000000   25.8441350000000014
   Ag   I    H    Sr
     2     4     2     2
Direct
  0.5000000000000000  0.5000000000000000  0.4575283586634064
  0.0000000000000000  0.0000000000000000  0.4575283586634064
  0.0000000000000000  0.5000000000000000  0.3677383991916581
  0.5000000000000000  0.0000000000000000  0.5473258079009895
  0.5000000000000000  0.0000000000000000 -0.0017965207405346
  0.0000000000000000  0.5000000000000000  0.8011082716530131
  0.5000000000000000  0.5000000000000000  0.8997155501422518
  0.0000000000000000  0.0000000000000000  0.8997155501422518
  0.0000000000000000  0.5000000000000000  0.9175832226391083
  0.5000000000000000  0.0000000000000000  0.8817513144370545
 
  0.00000000E+00  0.00000000E+00  0.00000000E+00
  0.00000000E+00  0.00000000E+00  0.00000000E+00
  0.00000000E+00  0.00000000E+00  0.00000000E+00
  0.00000000E+00  0.00000000E+00  0.00000000E+00
  0.00000000E+00  0.00000000E+00  0.00000000E+00
  0.00000000E+00  0.00000000E+00  0.00000000E+00
  0.00000000E+00  0.00000000E+00  0.00000000E+00
  0.00000000E+00  0.00000000E+00  0.00000000E+00
  0.00000000E+00  0.00000000E+00  0.00000000E+00
  0.00000000E+00  0.00000000E+00  0.00000000E+00
