 Ag Bi P Se W                           
   1.00000000000000     
    -6.6586439999999998    0.0000000000000000    0.0000000000000000
    -3.3293219999999999   -5.7665540000000002    0.0000000000000000
     0.0000000000000000    0.0000000000000000   23.3624140000000011
   Ag   Bi   P    Se   W 
     1     1     2    14     4
Direct
 -0.0000000000000000 -0.0000000000000000  0.4271080241203294
  0.6666659999999993  0.6666669999999968  0.4277915864039212
  0.3333340000000007  0.3333330000000032  0.3792993705656673
  0.3333340000000007  0.3333330000000032  0.4760771484023549
  0.6461492981049806  0.3314829018702634  0.3501049938697554
  0.0223668000247588  0.6461502981049780  0.3501049938697554
  0.3314819018702659  0.0223678000247563  0.3501049938697554
  0.0226178081890120  0.3310311692240500  0.5053172109693691
  0.6463510225869380  0.0226178081890120  0.5053172109693691
  0.3310311692240500  0.6463510225869380  0.5053172109693691
 -0.0000000000000000 -0.0000000000000000  0.8276071010269844
  0.5000118027149143 -0.0000025601497361  0.8276076919154248
 -0.0000025601497361  0.4999907574348216  0.8276076919154248
  0.4999907574348216  0.5000118027149143  0.8276076919154248
 -0.0000000000000000 -0.0000000000000000  0.9719437857310751
  0.5000092747186058  0.0000027799819132  0.9719459737793423
  0.0000027799819132  0.4999879452994815  0.9719459737793423
  0.4999879452994815  0.5000092747186058  0.9719459737793423
  0.6666669999999968  0.6666664999999981  0.8997836350115098
  0.1666569313391921  0.6666643306518748  0.8997801313029709
  0.6666648306518735  0.1666787380089334  0.8997801313029709
  0.1666792380089321  0.1666564313391934  0.8997801313029709
 
  0.00000000E+00  0.00000000E+00  0.00000000E+00
  0.00000000E+00  0.00000000E+00  0.00000000E+00
  0.00000000E+00  0.00000000E+00  0.00000000E+00
  0.00000000E+00  0.00000000E+00  0.00000000E+00
  0.00000000E+00  0.00000000E+00  0.00000000E+00
  0.00000000E+00  0.00000000E+00  0.00000000E+00
  0.00000000E+00  0.00000000E+00  0.00000000E+00
  0.00000000E+00  0.00000000E+00  0.00000000E+00
  0.00000000E+00  0.00000000E+00  0.00000000E+00
  0.00000000E+00  0.00000000E+00  0.00000000E+00
  0.00000000E+00  0.00000000E+00  0.00000000E+00
  0.00000000E+00  0.00000000E+00  0.00000000E+00
  0.00000000E+00  0.00000000E+00  0.00000000E+00
  0.00000000E+00  0.00000000E+00  0.00000000E+00
  0.00000000E+00  0.00000000E+00  0.00000000E+00
  0.00000000E+00  0.00000000E+00  0.00000000E+00
  0.00000000E+00  0.00000000E+00  0.00000000E+00
  0.00000000E+00  0.00000000E+00  0.00000000E+00
  0.00000000E+00  0.00000000E+00  0.00000000E+00
  0.00000000E+00  0.00000000E+00  0.00000000E+00
  0.00000000E+00  0.00000000E+00  0.00000000E+00
  0.00000000E+00  0.00000000E+00  0.00000000E+00
