Ag1Bi1P2Se6Ta1S2                        
   1.00000000000000     
    -6.7671580000000002    0.0000000000000000    0.0000000000000000
    -3.3835800000000003   -5.8605299999999998    0.0000000000000000
     0.0000000000000000    0.0000000000000000   23.0695480000000011
   Ag   Bi   P    Se   S    Ta
     1     1     2     6     8     4
Direct
  0.0000000000000000  0.0000000000000000  0.4350326276519068
  0.6666659999999993  0.6666669999999968  0.4343434122257673
  0.3333340000000007  0.3333330000000032  0.3854919366649383
  0.3333340000000007  0.3333330000000032  0.4830124892312860
  0.6419931139050685  0.3338690313563123  0.3570532455746402
  0.0241368547386218  0.6419941139050660  0.3570532455746402
  0.3338680313563148  0.0241378547386193  0.3570532455746402
  0.0244422142082237  0.3337776472039456  0.5116561962111063
  0.6417801385878309  0.0244422142082237  0.5116561962111061
  0.3337776472039456  0.6417801385878309  0.5116561962111063
  0.6666669999999968  0.6666664999999981  0.9640405733396652
  0.1694454945148067  0.6710129777635004  0.9667342829845356
  0.6710134777634992  0.1595415277216788  0.9667342829845356
  0.1595420277216775  0.1694449945148080  0.9667342829845356
  0.8303964987139794  0.8405450477392489  0.8306184382292489
  0.3290579535467798  0.8303969987139781  0.8306184382292489
  0.8405445477392501  0.3290584535467785  0.8306184382292489
  0.3333330000000032  0.3333335000000019  0.8333114788613037
  0.0000000000000000  0.0000000000000000  0.8986456851193528
  0.5378455272589275  0.0000660299904669  0.8986901666783359
  0.0000660299904669  0.4620884427506053  0.8986901666783359
  0.4620884427506053  0.5378455272589275  0.8986901666783359
 
  0.00000000E+00  0.00000000E+00  0.00000000E+00
  0.00000000E+00  0.00000000E+00  0.00000000E+00
  0.00000000E+00  0.00000000E+00  0.00000000E+00
  0.00000000E+00  0.00000000E+00  0.00000000E+00
  0.00000000E+00  0.00000000E+00  0.00000000E+00
  0.00000000E+00  0.00000000E+00  0.00000000E+00
  0.00000000E+00  0.00000000E+00  0.00000000E+00
  0.00000000E+00  0.00000000E+00  0.00000000E+00
  0.00000000E+00  0.00000000E+00  0.00000000E+00
  0.00000000E+00  0.00000000E+00  0.00000000E+00
  0.00000000E+00  0.00000000E+00  0.00000000E+00
  0.00000000E+00  0.00000000E+00  0.00000000E+00
  0.00000000E+00  0.00000000E+00  0.00000000E+00
  0.00000000E+00  0.00000000E+00  0.00000000E+00
  0.00000000E+00  0.00000000E+00  0.00000000E+00
  0.00000000E+00  0.00000000E+00  0.00000000E+00
  0.00000000E+00  0.00000000E+00  0.00000000E+00
  0.00000000E+00  0.00000000E+00  0.00000000E+00
  0.00000000E+00  0.00000000E+00  0.00000000E+00
  0.00000000E+00  0.00000000E+00  0.00000000E+00
  0.00000000E+00  0.00000000E+00  0.00000000E+00
  0.00000000E+00  0.00000000E+00  0.00000000E+00
