 Ag Bi P Se W                           
   1.00000000000000     
    -6.6586420000000004    0.0000000000000000    0.0000000000000000
    -3.3293200000000005   -5.7665540000000002    0.0000000000000000
     0.0000000000000000    0.0000000000000000   23.3624140000000011
   Ag   Bi   P    Se   W 
     1     1     2    14     4
Direct
  0.0000000000000000  0.0000000000000000  0.4274450304354545
  0.6666669999999968  0.6666659999999993  0.4278287826399245
  0.3333330000000032  0.3333340000000007  0.3791391160768308
  0.3333330000000032  0.3333340000000007  0.4759845869486693
  0.3316195255210130  0.6462137849604075  0.3499250782688980
  0.6462147849604050  0.0221656895185822  0.3499250782688980
  0.0221666895185796  0.3316185255210155  0.3499250782688980
  0.3309072349132928  0.0227965385522449  0.5053842508191393
  0.0227965385522449  0.6462962265344692  0.5053842508191393
  0.6462962265344692  0.3309072349132928  0.5053842508191393
  0.8333460790742059  0.8333246026204656  0.9719695544804959
  0.8333251026204643  0.3333288183053437  0.9719695544804959
  0.3333293183053424  0.8333455790742071  0.9719695544804959
  0.3333335000000019  0.3333330000000032  0.9719684816681075
  0.8333413019731294  0.8333201904551534  0.8276328269767060
  0.8333206904551521  0.3333380075717254  0.8276328269767060
  0.3333385075717242  0.8333408019731307  0.8276328269767060
  0.3333335000000019  0.3333330000000032  0.8276293923196435
  0.6666664999999981  0.6666669999999968  0.8997892630454285
  0.6666647284750993  0.1666568146182025  0.8997862906675531
  0.1666784569066910  0.6666652284750980  0.8997862906675531
  0.1666563146182038  0.1666789569066897  0.8997862906675531
 
  0.00000000E+00  0.00000000E+00  0.00000000E+00
  0.00000000E+00  0.00000000E+00  0.00000000E+00
  0.00000000E+00  0.00000000E+00  0.00000000E+00
  0.00000000E+00  0.00000000E+00  0.00000000E+00
  0.00000000E+00  0.00000000E+00  0.00000000E+00
  0.00000000E+00  0.00000000E+00  0.00000000E+00
  0.00000000E+00  0.00000000E+00  0.00000000E+00
  0.00000000E+00  0.00000000E+00  0.00000000E+00
  0.00000000E+00  0.00000000E+00  0.00000000E+00
  0.00000000E+00  0.00000000E+00  0.00000000E+00
  0.00000000E+00  0.00000000E+00  0.00000000E+00
  0.00000000E+00  0.00000000E+00  0.00000000E+00
  0.00000000E+00  0.00000000E+00  0.00000000E+00
  0.00000000E+00  0.00000000E+00  0.00000000E+00
  0.00000000E+00  0.00000000E+00  0.00000000E+00
  0.00000000E+00  0.00000000E+00  0.00000000E+00
  0.00000000E+00  0.00000000E+00  0.00000000E+00
  0.00000000E+00  0.00000000E+00  0.00000000E+00
  0.00000000E+00  0.00000000E+00  0.00000000E+00
  0.00000000E+00  0.00000000E+00  0.00000000E+00
  0.00000000E+00  0.00000000E+00  0.00000000E+00
  0.00000000E+00  0.00000000E+00  0.00000000E+00
