Ag1Bi1P2Se6Nb3Ir1S8                     
   1.00000000000000     
    -6.7175170000000000    0.0000000000000000    0.0000000000000000
    -3.3252329999999999   -5.8388350000000004    0.0000000000000000
     0.2178480000000000    0.0141630000000000   23.3467979999999997
   Ag   Bi   P    Se   Ir   Nb   S 
     1     1     2     6     1     3     8
Direct
  0.9099978258556030  0.0806425663371901  0.4356063699941108
  0.6893182860227498  0.6636259513856350  0.4204333994426943
  0.3452109138095383  0.3112508502007860  0.3734529185391413
  0.3432936817549754  0.3303085355192921  0.4708433043410432
  0.6572045269163129  0.3139741494946464  0.3442422617911983
  0.0431808105888518  0.6200548601733119  0.3420609930191114
  0.3326518392353504  0.0033269705354238  0.3503638502292090
  0.0363257826782494  0.3358765070407296  0.5043864395011266
  0.6423774530344170  0.0209632545243534  0.5068637857491424
  0.3324971215149533  0.6542103638830978  0.4876277034874517
  0.4812930809681737  0.5281882880764097  0.9785679577997093
  0.0526814245534572  0.9810460912988329  0.9711181216845188
  0.0664218462351083  0.4793406689124021  0.9603896177004965
  0.5379312586396261  0.9454597505279271  0.9894576352754126
  0.3648338709781436  0.8302071891434278  0.9094699466036555
  0.8145895782297272  0.8567244493553244  0.9137369906149517
  0.1614736429621423  0.2020976137571319  0.0364232485011791
  0.6712367195255959  0.1859554364873801  0.0358283521712011
  0.8177743126438011  0.3512169859518255  0.9165679472890799
  0.3841919709638989  0.3307022105110451  0.9068731021599715
  0.6830325343222758  0.6320840568231023  0.0466391212892779
  0.1603465185670536  0.6733902500607303  0.0380772637891440
 
  0.00000000E+00  0.00000000E+00  0.00000000E+00
  0.00000000E+00  0.00000000E+00  0.00000000E+00
  0.00000000E+00  0.00000000E+00  0.00000000E+00
  0.00000000E+00  0.00000000E+00  0.00000000E+00
  0.00000000E+00  0.00000000E+00  0.00000000E+00
  0.00000000E+00  0.00000000E+00  0.00000000E+00
  0.00000000E+00  0.00000000E+00  0.00000000E+00
  0.00000000E+00  0.00000000E+00  0.00000000E+00
  0.00000000E+00  0.00000000E+00  0.00000000E+00
  0.00000000E+00  0.00000000E+00  0.00000000E+00
  0.00000000E+00  0.00000000E+00  0.00000000E+00
  0.00000000E+00  0.00000000E+00  0.00000000E+00
  0.00000000E+00  0.00000000E+00  0.00000000E+00
  0.00000000E+00  0.00000000E+00  0.00000000E+00
  0.00000000E+00  0.00000000E+00  0.00000000E+00
  0.00000000E+00  0.00000000E+00  0.00000000E+00
  0.00000000E+00  0.00000000E+00  0.00000000E+00
  0.00000000E+00  0.00000000E+00  0.00000000E+00
  0.00000000E+00  0.00000000E+00  0.00000000E+00
  0.00000000E+00  0.00000000E+00  0.00000000E+00
  0.00000000E+00  0.00000000E+00  0.00000000E+00
  0.00000000E+00  0.00000000E+00  0.00000000E+00
