 Ag I F Sr                              
   1.00000000000000     
    -4.2175209999999996    0.0000000000000000    0.0000000000000000
     0.0000000000000000   -4.2175209999999996    0.0000000000000000
     0.0000000000000000    0.0000000000000000   26.0061800000000005
   Ag   I    F    Sr
     2     4     2     2
Direct
  0.5000000000000000  0.5000000000000000  0.4544759845822371
  0.0000000000000000  0.0000000000000000  0.4544759845822371
  0.0000000000000000  0.5000000000000000  0.3650622019282692
  0.5000000000000000  0.0000000000000000  0.5439320508423185
  0.5000000000000000  0.0000000000000000  0.0151187292257600
  0.0000000000000000  0.5000000000000000  0.7844236618850865
  0.0000000000000000  0.0000000000000000  0.8998385307787842
  0.5000000000000000  0.5000000000000000  0.8998385307787842
  0.0000000000000000  0.5000000000000000  0.9487236344137395
  0.5000000000000000  0.0000000000000000  0.8509174653725649
 
  0.00000000E+00  0.00000000E+00  0.00000000E+00
  0.00000000E+00  0.00000000E+00  0.00000000E+00
  0.00000000E+00  0.00000000E+00  0.00000000E+00
  0.00000000E+00  0.00000000E+00  0.00000000E+00
  0.00000000E+00  0.00000000E+00  0.00000000E+00
  0.00000000E+00  0.00000000E+00  0.00000000E+00
  0.00000000E+00  0.00000000E+00  0.00000000E+00
  0.00000000E+00  0.00000000E+00  0.00000000E+00
  0.00000000E+00  0.00000000E+00  0.00000000E+00
  0.00000000E+00  0.00000000E+00  0.00000000E+00
