Ag1Bi1P2Se6Ti2N2Cl2                     
   1.00000000000000     
    -6.5390119999999996    0.0000000000000000    0.0000000000000000
     0.0000000000000000  -11.8363589999999999    0.0000000000000000
     0.0000000000000000    0.0000000000000000   25.2246659999999991
   Ag   Bi   P    Se   Cl   N    Ti
     2     2     4    12    12    12    12
Direct
  0.0021145619960503  0.0409501826223114  0.3961851515754009
  0.5020340984175955  0.5409396973779010  0.3961348340763899
  0.4996157549817121  0.8354851725267008  0.3955469060932283
 -0.0003988966890417  0.3354852581738847  0.3955297018802726
 -0.0066181502138504  0.6620443873265913  0.3504372222789071
  0.4933645330550543  0.1620330040228446  0.3504484545148330
  0.0055331818211213  0.6618479615246852  0.4412199083842842
  0.5055253590098717  0.1618649274582176  0.4412314992314660
  0.2996682758296760  0.6600917779525716  0.3173638470049248
  0.7996657054052632  0.1600555938243735  0.3173856762293759
  0.8476394842098708  0.8192811205182533  0.3232109685281221
  0.3476334425128870  0.3192538171876720  0.3231958220206486
  0.8178815440334420  0.5039350256055342  0.3303069533160465
  0.3178477376306721  0.0039268874183723  0.3303259284464360
  0.7001647522517433  0.6600269034043922  0.4748419193683092
  0.2001784596475987  0.1600666939108408  0.4748678519800010
  0.1816349259785698  0.5038708007578040  0.4607633186861487
  0.6816172741268852  0.0038837970084070  0.4607782979828384
  0.1523502849183784  0.8190315015074123  0.4680738709906438
  0.6523638906826691  0.3190585019844612  0.4680627386576769
  0.0056608318363248  0.8333332825551372  0.0033106612434085
  0.0056645260728173  0.4999959696786228  0.0033133875939038
  0.0056602877299149  0.1666725932811000  0.0033125406234605
  0.5056610397013807  0.8333360731710372  0.0033110740909820
  0.5056651905176103  0.5000110112636378  0.0033133757623345
  0.5056617632498461  0.1666849219958068  0.0033115835829566
  0.7556594798864611  0.0000138052559176  0.7967363549757741
  0.7556600145073709  0.6666641645622705  0.7967343783348690
  0.7556606527847605  0.3333416129595541  0.7967337136843278
  0.2556593649235701  0.0000022131844806  0.7967365057179254
  0.2556580030296053  0.6666657620063527  0.7967338142401803
  0.2556617956341566  0.3333456748259937  0.7967339296488548
  0.0056061629462488  0.8333341493098853  0.8821836770428063
  0.0055905266620791  0.5000028406611243  0.8821818632018740
  0.0056059125320618  0.1666800020259994  0.8821836500398845
  0.5056034238379572  0.8333341386962271  0.8821835423049135
  0.5055899243552520  0.5000024093701634  0.8821816319342664
  0.5056060767816343  0.1666797766629378  0.8821831773487534
  0.7556068494845601  0.0000096874594317  0.9178631137132358
  0.7556170363599015  0.6666640851684854  0.9178632340833719
  0.7556088618755229  0.3333433704509576  0.9178642163032921
  0.2556083141199727  0.0000062178274982  0.9178637422496452
  0.2556132028508485  0.6666651681405074  0.9178642209570788
  0.2556126428113951  0.3333450589635709  0.9178641777590452
  0.9887498727076915  0.0000034672807329  0.8689694869610486
  0.9887460839184800  0.6666785078283015  0.8689686718707723
 -0.0112435150531933  0.3333347921606774  0.8689674634226283
  0.4887473026355923  0.0000012774087328  0.8689699758548814
  0.4887550550868766  0.6666792455290813  0.8689686011009429
  0.4887457071587311  0.3333365034509325  0.8689673785016784
  0.7387438205502925  0.8333461138958091  0.9310683465771190
  0.7387495690698771  0.5000102758168214  0.9310718011052185
  0.7387450884433122  0.1666616231973314  0.9310693214428688
  0.2387438557569047  0.8333482134787427  0.9310694966636915
  0.2387502960831152  0.5000046967225081  0.9310725718240302
  0.2387467595449041  0.1666622816404076  0.9310696723679923
 
  0.00000000E+00  0.00000000E+00  0.00000000E+00
  0.00000000E+00  0.00000000E+00  0.00000000E+00
  0.00000000E+00  0.00000000E+00  0.00000000E+00
  0.00000000E+00  0.00000000E+00  0.00000000E+00
  0.00000000E+00  0.00000000E+00  0.00000000E+00
  0.00000000E+00  0.00000000E+00  0.00000000E+00
  0.00000000E+00  0.00000000E+00  0.00000000E+00
  0.00000000E+00  0.00000000E+00  0.00000000E+00
  0.00000000E+00  0.00000000E+00  0.00000000E+00
  0.00000000E+00  0.00000000E+00  0.00000000E+00
  0.00000000E+00  0.00000000E+00  0.00000000E+00
  0.00000000E+00  0.00000000E+00  0.00000000E+00
  0.00000000E+00  0.00000000E+00  0.00000000E+00
  0.00000000E+00  0.00000000E+00  0.00000000E+00
  0.00000000E+00  0.00000000E+00  0.00000000E+00
  0.00000000E+00  0.00000000E+00  0.00000000E+00
  0.00000000E+00  0.00000000E+00  0.00000000E+00
  0.00000000E+00  0.00000000E+00  0.00000000E+00
  0.00000000E+00  0.00000000E+00  0.00000000E+00
  0.00000000E+00  0.00000000E+00  0.00000000E+00
  0.00000000E+00  0.00000000E+00  0.00000000E+00
  0.00000000E+00  0.00000000E+00  0.00000000E+00
  0.00000000E+00  0.00000000E+00  0.00000000E+00
  0.00000000E+00  0.00000000E+00  0.00000000E+00
  0.00000000E+00  0.00000000E+00  0.00000000E+00
  0.00000000E+00  0.00000000E+00  0.00000000E+00
  0.00000000E+00  0.00000000E+00  0.00000000E+00
  0.00000000E+00  0.00000000E+00  0.00000000E+00
  0.00000000E+00  0.00000000E+00  0.00000000E+00
  0.00000000E+00  0.00000000E+00  0.00000000E+00
  0.00000000E+00  0.00000000E+00  0.00000000E+00
  0.00000000E+00  0.00000000E+00  0.00000000E+00
  0.00000000E+00  0.00000000E+00  0.00000000E+00
  0.00000000E+00  0.00000000E+00  0.00000000E+00
  0.00000000E+00  0.00000000E+00  0.00000000E+00
  0.00000000E+00  0.00000000E+00  0.00000000E+00
  0.00000000E+00  0.00000000E+00  0.00000000E+00
  0.00000000E+00  0.00000000E+00  0.00000000E+00
  0.00000000E+00  0.00000000E+00  0.00000000E+00
  0.00000000E+00  0.00000000E+00  0.00000000E+00
  0.00000000E+00  0.00000000E+00  0.00000000E+00
  0.00000000E+00  0.00000000E+00  0.00000000E+00
  0.00000000E+00  0.00000000E+00  0.00000000E+00
  0.00000000E+00  0.00000000E+00  0.00000000E+00
  0.00000000E+00  0.00000000E+00  0.00000000E+00
  0.00000000E+00  0.00000000E+00  0.00000000E+00
  0.00000000E+00  0.00000000E+00  0.00000000E+00
  0.00000000E+00  0.00000000E+00  0.00000000E+00
  0.00000000E+00  0.00000000E+00  0.00000000E+00
  0.00000000E+00  0.00000000E+00  0.00000000E+00
  0.00000000E+00  0.00000000E+00  0.00000000E+00
  0.00000000E+00  0.00000000E+00  0.00000000E+00
  0.00000000E+00  0.00000000E+00  0.00000000E+00
  0.00000000E+00  0.00000000E+00  0.00000000E+00
  0.00000000E+00  0.00000000E+00  0.00000000E+00
  0.00000000E+00  0.00000000E+00  0.00000000E+00
