 Ag Bi P Se Cl Re                       
   1.00000000000000     
    -6.5438090000000004    0.0000000000000000    0.0000000000000000
    -3.2719040000000006   -5.6671050000000003    0.0000000000000000
     0.0000000000000000    0.0000000000000000   22.7684099999999994
   Ag   Bi   P    Se   Cl   Re
     3     1     2     6     6     1
Direct
 -0.0000000000000000  0.0000000000000000  0.4400107348912873
  0.3333330000000032  0.3333340000000007  0.8477597673351448
  0.6666669999999968  0.6666659999999993  0.9510954431230241
  0.6666669999999968  0.6666659999999993  0.4386223681983272
  0.3333330000000032  0.3333340000000007  0.3890766863183839
  0.3333330000000032  0.3333340000000007  0.4888444622106632
  0.3282540137418525  0.6513616306630874  0.3580054211482475
  0.6513626306630849  0.0203833555950698  0.3580054211482475
  0.0203843555950672  0.3282530137418551  0.3580054211482475
  0.3301513412791214  0.0196364362236930  0.5199211812694278
  0.0196364362236930  0.6502122224971856  0.5199211812694278
  0.6502122224971856  0.3301513412791214  0.5199211812694278
  0.3183631747590138  0.7263412056829219  0.8395956589165862
  0.7263412056829219  0.9552956195580571  0.8395956589165862
  0.9552956195580571  0.3183631747590138  0.8395956589165862
  0.0447008763085252  0.6816252825180272  0.9593214382254905
  0.2736738411734475  0.0447008763085252  0.9593214382254905
  0.6816252825180272  0.2736738411734475  0.9593214382254905
 -0.0000000000000000  0.0000000000000000  0.8994391194798915
 
  0.00000000E+00  0.00000000E+00  0.00000000E+00
  0.00000000E+00  0.00000000E+00  0.00000000E+00
  0.00000000E+00  0.00000000E+00  0.00000000E+00
  0.00000000E+00  0.00000000E+00  0.00000000E+00
  0.00000000E+00  0.00000000E+00  0.00000000E+00
  0.00000000E+00  0.00000000E+00  0.00000000E+00
  0.00000000E+00  0.00000000E+00  0.00000000E+00
  0.00000000E+00  0.00000000E+00  0.00000000E+00
  0.00000000E+00  0.00000000E+00  0.00000000E+00
  0.00000000E+00  0.00000000E+00  0.00000000E+00
  0.00000000E+00  0.00000000E+00  0.00000000E+00
  0.00000000E+00  0.00000000E+00  0.00000000E+00
  0.00000000E+00  0.00000000E+00  0.00000000E+00
  0.00000000E+00  0.00000000E+00  0.00000000E+00
  0.00000000E+00  0.00000000E+00  0.00000000E+00
  0.00000000E+00  0.00000000E+00  0.00000000E+00
  0.00000000E+00  0.00000000E+00  0.00000000E+00
  0.00000000E+00  0.00000000E+00  0.00000000E+00
  0.00000000E+00  0.00000000E+00  0.00000000E+00
