 Ag Bi P Se Cu                          
   1.00000000000000     
    -6.5905730000000000    0.0000000000000000    0.0000000000000000
    -3.2952859999999999   -5.7076039999999999    0.0000000000000000
     0.0000000000000000    0.0000000000000000   23.4687850000000005
   Ag   Bi   P    Se   Cu
     1     2     4    12     1
Direct
  0.0000000000000000 -0.0000000000000000  0.4259051376293481
  0.6666669999999968  0.6666659999999993  0.4253626134066071
  0.6666669999999968  0.6666659999999993  0.8998794667309959
  0.3333330000000032  0.3333340000000007  0.3773097975288465
  0.3333330000000032  0.3333340000000007  0.4738712704925537
  0.3333330000000032  0.3333340000000007  0.8519850405134394
  0.3333330000000032  0.3333340000000007  0.9477858740819108
  0.3294479181777751  0.6491792745312642  0.3475503462665309
  0.6491802745312617  0.0213718072909628  0.3475503462665309
  0.0213728072909603  0.3294469181777777  0.3475503462665309
  0.3301391019964483  0.0208878122873580  0.5035270670919455
  0.0208878122873580  0.6489730857161865  0.5035270670919455
  0.6489730857161865  0.3301391019964483  0.5035270670919455
  0.3159702419001532  0.0246814998186323  0.8249971802222974
  0.0246689890726740  0.3159722648761184  0.9747645108408314
  0.6593587460512076  0.0246689890726740  0.9747645108408314
  0.3159722648761184  0.6593587460512077  0.9747645108408314
  0.0246814998186323  0.6593482582812078  0.8249971802222974
  0.6593482582812078  0.3159702419001532  0.8249971802222974
  0.0000000000000000 -0.0000000000000000  0.8998910190286911
 
  0.00000000E+00  0.00000000E+00  0.00000000E+00
  0.00000000E+00  0.00000000E+00  0.00000000E+00
  0.00000000E+00  0.00000000E+00  0.00000000E+00
  0.00000000E+00  0.00000000E+00  0.00000000E+00
  0.00000000E+00  0.00000000E+00  0.00000000E+00
  0.00000000E+00  0.00000000E+00  0.00000000E+00
  0.00000000E+00  0.00000000E+00  0.00000000E+00
  0.00000000E+00  0.00000000E+00  0.00000000E+00
  0.00000000E+00  0.00000000E+00  0.00000000E+00
  0.00000000E+00  0.00000000E+00  0.00000000E+00
  0.00000000E+00  0.00000000E+00  0.00000000E+00
  0.00000000E+00  0.00000000E+00  0.00000000E+00
  0.00000000E+00  0.00000000E+00  0.00000000E+00
  0.00000000E+00  0.00000000E+00  0.00000000E+00
  0.00000000E+00  0.00000000E+00  0.00000000E+00
  0.00000000E+00  0.00000000E+00  0.00000000E+00
  0.00000000E+00  0.00000000E+00  0.00000000E+00
  0.00000000E+00  0.00000000E+00  0.00000000E+00
  0.00000000E+00  0.00000000E+00  0.00000000E+00
  0.00000000E+00  0.00000000E+00  0.00000000E+00
