Ag1Bi1P2Se6Cr2Si2Te6                    
   1.00000000000000     
    -6.8294769999999998    0.0000000000000000    0.0000000000000000
    -3.4147390000000000   -5.9145009999999996    0.0000000000000000
     0.0000000000000000    0.0000000000000000   23.4493790000000004
   Ag   Bi   P    Se   Cr   Si   Te
     1     1     2     6     2     2     6
Direct
  0.0000000000000000 -0.0000000000000000  0.4229245555082392
  0.6666659999999993  0.6666669999999968  0.4231093473566556
  0.3333340000000007  0.3333330000000032  0.3753626020454597
  0.3333340000000007  0.3333330000000032  0.4711988683929056
  0.6394329690517553  0.3347879750866760  0.3476507830353328
  0.0257780558615713  0.6394339690517528  0.3476507830353328
  0.3347869750866785  0.0257790558615688  0.3476507830353328
  0.0254669847311252  0.3348663152419482  0.4986795131513030
  0.6396667000269339  0.0254669847311252  0.4986795131513030
  0.3348663152419482  0.6396667000269339  0.4986795131513030
  0.0000000000000000 -0.0000000000000000  0.9761896155620392
  0.6666659999999993  0.6666669999999968  0.9762090528119138
  0.3333340000000007  0.3333330000000032  0.0243661560730632
  0.3333340000000007  0.3333330000000032  0.9280288222073018
  0.6912550205411134  0.3333258335046171  0.0502069651415164
  0.3333258335046171  0.9754191459542692  0.0502069651415164
  0.9754191459542692  0.6912550205411134  0.0502069651415164
  0.6912606514475127  0.9753954393246629  0.9022058770220225
  0.3333439092278243  0.6912606514475127  0.9022058770220225
  0.9753954393246629  0.3333439092278243  0.9022058770220225
 
  0.00000000E+00  0.00000000E+00  0.00000000E+00
  0.00000000E+00  0.00000000E+00  0.00000000E+00
  0.00000000E+00  0.00000000E+00  0.00000000E+00
  0.00000000E+00  0.00000000E+00  0.00000000E+00
  0.00000000E+00  0.00000000E+00  0.00000000E+00
  0.00000000E+00  0.00000000E+00  0.00000000E+00
  0.00000000E+00  0.00000000E+00  0.00000000E+00
  0.00000000E+00  0.00000000E+00  0.00000000E+00
  0.00000000E+00  0.00000000E+00  0.00000000E+00
  0.00000000E+00  0.00000000E+00  0.00000000E+00
  0.00000000E+00  0.00000000E+00  0.00000000E+00
  0.00000000E+00  0.00000000E+00  0.00000000E+00
  0.00000000E+00  0.00000000E+00  0.00000000E+00
  0.00000000E+00  0.00000000E+00  0.00000000E+00
  0.00000000E+00  0.00000000E+00  0.00000000E+00
  0.00000000E+00  0.00000000E+00  0.00000000E+00
  0.00000000E+00  0.00000000E+00  0.00000000E+00
  0.00000000E+00  0.00000000E+00  0.00000000E+00
  0.00000000E+00  0.00000000E+00  0.00000000E+00
  0.00000000E+00  0.00000000E+00  0.00000000E+00
