Ag1Bi1P2Se6As4S6                        
   1.00000000000000     
   -13.0384440000000019    0.0000000000000000    0.0000000000000000
     0.0000000000000000  -11.5192189999999997    0.0000000000000000
    -1.1105630000000000    0.0000000000000000   20.4456349999999993
   Ag   Bi   P    Se   As   S 
     4     4     8    24    12    18
Direct
  0.0007773901820522  0.0150099140860524  0.5157671113795410
  0.5029802821710242  0.0130213958743409  0.5138506359843295
  0.7433495604480557  0.5044266850940289  0.5234148860255838
  0.2527835238758254  0.4968127830912263  0.5210567337994342
  0.7421229990224339  0.8369116457665485  0.5493486253248505
  0.0011947923654633  0.3318370453816019  0.5433593223185111
  0.2421305866344192  0.8362335875371143  0.5494974900151858
  0.4978181960975863  0.3300048116645678  0.5437307888913009
 -0.0032808907677413  0.6637579214473768  0.4897113878169894
  0.4989032783040458  0.6648761343199884  0.4871386253564240
  0.7533102333650515  0.1650634284060407  0.4763857683268096
  0.2530100904731895  0.1654418088773660  0.4782280571920241
 -0.0162158281888671  0.6622085150102821  0.6014456870668322
  0.4869693328693037  0.6611830157635494  0.5991342038741997
  0.7457655108836747  0.1661173413748259  0.5881758764766910
  0.2440821033497185  0.1653330268892767  0.5906932785943356
  0.6618346607170564  0.6751499979955007  0.4528474512542471
  0.9150967255566834  0.1812956932430899  0.4407318707859650
  0.1600526752568150  0.6701820262461733  0.4564910319309466
  0.4143295728862674  0.1795514957199944  0.4416659222858128
  0.9183751396251176  0.8212108859927174  0.4552702055837788
  0.4167176504911219  0.8208683305035652  0.4540889777704399
  0.6665724781218985  0.3168925115616315  0.4429214984076380
  0.1703523376131178  0.3182151962577137  0.4420534049968963
  0.9301858421917842  0.5037493873668230  0.4508974520632106
  0.4350801353058686  0.5041281659205779  0.4477730482189018
  0.6892519283176117 -0.0007322053527210  0.4432446855342378
  0.1874478407717561  0.0006136628541132  0.4448829575369175
  0.8193092479229532  0.6474689894679334  0.6320214672073643
  0.3227394696056419  0.6442308077793931  0.6291107638866560
  0.5843433504533768  0.1386063193810380  0.6211191491202668
  0.0821803074285435  0.1354086654720674  0.6215392582151529
  0.5737970143699705  0.5107223516490764  0.6306002854377507
  0.8418668580041648  0.0230324201469273  0.6209576598207855
  0.0720957909337159  0.5127516306681585  0.6330874252393803
  0.3417207573693175  0.0225892193765067  0.6216809895283182
  0.5488314178954966  0.8263561617183171  0.6321377579652561
  0.8031076934507105  0.3376794849679013  0.6154916378937012
  0.0483224675002049  0.8262654712634337  0.6335383850500388
  0.2982678145463770  0.3367935403024991  0.6209493339378237
  0.7707686085421284  0.9921530470211083  0.8616010211945393
  0.4381916644026467  0.9944478759150406  0.8649030746886596
  0.1098663511107902  0.9971505183265595  0.8684391480128922
  0.8046424570775660  0.2749614577434104  0.8706249120950719
  0.4677681583677609  0.2743038991006134  0.8661184371771506
  0.1368097753987045  0.2745578757030551  0.8639591120343041
  0.8365596408566218  0.7401532317003918  0.8075693481692898
  0.5013742534899877  0.7434957008154397  0.8060860797462157
  0.1651847544653011  0.7472160113383898  0.8036162041120413
  0.9789567624611710  0.4901545482765377  0.7996606797975786
  0.6445358064218237  0.4919290628511069  0.8053228637880017
  0.3146948923558391  0.4908944969656256  0.7980587991046633
  0.8923459012441904  0.1244401601580844  0.8181022430248325
  0.5596068809528764  0.1230022853774444  0.8181586543894278
  0.2284103769676520  0.1238524834082368  0.8162512554229868
  0.8714506327442199  0.8434507555884729  0.8986572986971623
  0.5383382063584234  0.8420873373585291  0.8984283756869910
  0.2063436984059210  0.8395455120340907  0.8975348371697226
  0.7398409466634490  0.8911660916730427  0.7684596167221552
  0.4028537902670599  0.8970193472208134  0.7717016581554311
  0.0668317321531249  0.9050556411628341  0.7751627966265682
  0.7599810919425408  0.3493446972175596  0.7735675999331804
  0.4341614862814183  0.3505064003980090  0.7672579689071335
  0.0958813573409944  0.3490280718806170  0.7658951882988938
  0.9234915963188178  0.4098001661620784  0.8978244903755261
  0.5818686133641997  0.4091679909931246  0.9008726287696730
  0.2526411410882175  0.4106666836771740  0.8944459008677694
  0.7208019849997508  0.6267541488812417  0.8699692574671276
  0.3857732440526925  0.6255082922322733  0.8653364839697238
  0.0544458564833056  0.6262339377324548  0.8647346502665281
 
  0.00000000E+00  0.00000000E+00  0.00000000E+00
  0.00000000E+00  0.00000000E+00  0.00000000E+00
  0.00000000E+00  0.00000000E+00  0.00000000E+00
  0.00000000E+00  0.00000000E+00  0.00000000E+00
  0.00000000E+00  0.00000000E+00  0.00000000E+00
  0.00000000E+00  0.00000000E+00  0.00000000E+00
  0.00000000E+00  0.00000000E+00  0.00000000E+00
  0.00000000E+00  0.00000000E+00  0.00000000E+00
  0.00000000E+00  0.00000000E+00  0.00000000E+00
  0.00000000E+00  0.00000000E+00  0.00000000E+00
  0.00000000E+00  0.00000000E+00  0.00000000E+00
  0.00000000E+00  0.00000000E+00  0.00000000E+00
  0.00000000E+00  0.00000000E+00  0.00000000E+00
  0.00000000E+00  0.00000000E+00  0.00000000E+00
  0.00000000E+00  0.00000000E+00  0.00000000E+00
  0.00000000E+00  0.00000000E+00  0.00000000E+00
  0.00000000E+00  0.00000000E+00  0.00000000E+00
  0.00000000E+00  0.00000000E+00  0.00000000E+00
  0.00000000E+00  0.00000000E+00  0.00000000E+00
  0.00000000E+00  0.00000000E+00  0.00000000E+00
  0.00000000E+00  0.00000000E+00  0.00000000E+00
  0.00000000E+00  0.00000000E+00  0.00000000E+00
  0.00000000E+00  0.00000000E+00  0.00000000E+00
  0.00000000E+00  0.00000000E+00  0.00000000E+00
  0.00000000E+00  0.00000000E+00  0.00000000E+00
  0.00000000E+00  0.00000000E+00  0.00000000E+00
  0.00000000E+00  0.00000000E+00  0.00000000E+00
  0.00000000E+00  0.00000000E+00  0.00000000E+00
  0.00000000E+00  0.00000000E+00  0.00000000E+00
  0.00000000E+00  0.00000000E+00  0.00000000E+00
  0.00000000E+00  0.00000000E+00  0.00000000E+00
  0.00000000E+00  0.00000000E+00  0.00000000E+00
  0.00000000E+00  0.00000000E+00  0.00000000E+00
  0.00000000E+00  0.00000000E+00  0.00000000E+00
  0.00000000E+00  0.00000000E+00  0.00000000E+00
  0.00000000E+00  0.00000000E+00  0.00000000E+00
  0.00000000E+00  0.00000000E+00  0.00000000E+00
  0.00000000E+00  0.00000000E+00  0.00000000E+00
  0.00000000E+00  0.00000000E+00  0.00000000E+00
  0.00000000E+00  0.00000000E+00  0.00000000E+00
  0.00000000E+00  0.00000000E+00  0.00000000E+00
  0.00000000E+00  0.00000000E+00  0.00000000E+00
  0.00000000E+00  0.00000000E+00  0.00000000E+00
  0.00000000E+00  0.00000000E+00  0.00000000E+00
  0.00000000E+00  0.00000000E+00  0.00000000E+00
  0.00000000E+00  0.00000000E+00  0.00000000E+00
  0.00000000E+00  0.00000000E+00  0.00000000E+00
  0.00000000E+00  0.00000000E+00  0.00000000E+00
  0.00000000E+00  0.00000000E+00  0.00000000E+00
  0.00000000E+00  0.00000000E+00  0.00000000E+00
  0.00000000E+00  0.00000000E+00  0.00000000E+00
  0.00000000E+00  0.00000000E+00  0.00000000E+00
  0.00000000E+00  0.00000000E+00  0.00000000E+00
  0.00000000E+00  0.00000000E+00  0.00000000E+00
  0.00000000E+00  0.00000000E+00  0.00000000E+00
  0.00000000E+00  0.00000000E+00  0.00000000E+00
  0.00000000E+00  0.00000000E+00  0.00000000E+00
  0.00000000E+00  0.00000000E+00  0.00000000E+00
  0.00000000E+00  0.00000000E+00  0.00000000E+00
  0.00000000E+00  0.00000000E+00  0.00000000E+00
  0.00000000E+00  0.00000000E+00  0.00000000E+00
  0.00000000E+00  0.00000000E+00  0.00000000E+00
  0.00000000E+00  0.00000000E+00  0.00000000E+00
  0.00000000E+00  0.00000000E+00  0.00000000E+00
  0.00000000E+00  0.00000000E+00  0.00000000E+00
  0.00000000E+00  0.00000000E+00  0.00000000E+00
  0.00000000E+00  0.00000000E+00  0.00000000E+00
  0.00000000E+00  0.00000000E+00  0.00000000E+00
  0.00000000E+00  0.00000000E+00  0.00000000E+00
  0.00000000E+00  0.00000000E+00  0.00000000E+00
