Ag1Bi1P2Se6Ta2C1S2                      
   1.00000000000000     
    -6.5830979999999997    0.0000000000000000    0.0000000000000000
    -3.2915479999999997   -5.7011300000000000    0.0000000000000000
     0.0000000000000000    0.0000000000000000   25.6284649999999985
   Ag   Bi   P    Se   C    S    Ta
     1     1     2     6     4     8     8
Direct
 -0.0000000000000000 -0.0000000000000000  0.3893970123613721
  0.6666659999999993  0.6666669999999968  0.3894200377451197
  0.3333340000000007  0.3333330000000032  0.3454220980713604
  0.3333340000000007  0.3333330000000032  0.4338708091357262
  0.6492271264136857  0.3296278031311329  0.3180070151045609
  0.0211440704551842  0.6492281264136832  0.3180070151045609
  0.3296268031311354  0.0211450704551817  0.3180070151045609
  0.0207909289703279  0.3296581201669586  0.4610520950706384
  0.6495509508627135  0.0207909289703279  0.4610520950706384
  0.3296581201669586  0.6495509508627135  0.4610520950706384
 -0.0000000000000000 -0.0000000000000000  0.9000347748754022
  0.5000003681556200  0.0000003800650358  0.9000345209683489
  0.0000003800650358  0.4999992517793441  0.9000345209683489
  0.4999992517793441  0.5000003681556200  0.9000345209683489
  0.6666669999999968  0.6666664999999981  0.7925143056449424
  0.1666634283559867  0.6666696627596504  0.7925135126496254
  0.6666701627596492  0.1666669088843487  0.7925135126496254
  0.1666674088843474  0.1666629283559879  0.7925135126496254
  0.8333316041471173  0.8333370476547373  0.0075556702265615
  0.3333308481981607  0.8333321041471160  0.0075556702265615
  0.8333365476547385  0.3333313481981594  0.0075556702265615
  0.3333330000000032  0.3333335000000019  0.0075552026388543
  0.6666669999999968  0.6666664999999981  0.9445463611869880
  0.1666597242959021  0.6666634550076429  0.9445440571634418
  0.6666639550076416  0.1666768206964480  0.9445440571634418
  0.1666773206964468  0.1666592242959034  0.9445440571634418
  0.8333247504831667  0.8333397485381414  0.8555268197264325
  0.3333350009787004  0.8333252504831654  0.8555268197264325
  0.8333392485381425  0.3333355009786991  0.8555268197264325
  0.3333330000000032  0.3333335000000019  0.8555236124899569
 
  0.00000000E+00  0.00000000E+00  0.00000000E+00
  0.00000000E+00  0.00000000E+00  0.00000000E+00
  0.00000000E+00  0.00000000E+00  0.00000000E+00
  0.00000000E+00  0.00000000E+00  0.00000000E+00
  0.00000000E+00  0.00000000E+00  0.00000000E+00
  0.00000000E+00  0.00000000E+00  0.00000000E+00
  0.00000000E+00  0.00000000E+00  0.00000000E+00
  0.00000000E+00  0.00000000E+00  0.00000000E+00
  0.00000000E+00  0.00000000E+00  0.00000000E+00
  0.00000000E+00  0.00000000E+00  0.00000000E+00
  0.00000000E+00  0.00000000E+00  0.00000000E+00
  0.00000000E+00  0.00000000E+00  0.00000000E+00
  0.00000000E+00  0.00000000E+00  0.00000000E+00
  0.00000000E+00  0.00000000E+00  0.00000000E+00
  0.00000000E+00  0.00000000E+00  0.00000000E+00
  0.00000000E+00  0.00000000E+00  0.00000000E+00
  0.00000000E+00  0.00000000E+00  0.00000000E+00
  0.00000000E+00  0.00000000E+00  0.00000000E+00
  0.00000000E+00  0.00000000E+00  0.00000000E+00
  0.00000000E+00  0.00000000E+00  0.00000000E+00
  0.00000000E+00  0.00000000E+00  0.00000000E+00
  0.00000000E+00  0.00000000E+00  0.00000000E+00
  0.00000000E+00  0.00000000E+00  0.00000000E+00
  0.00000000E+00  0.00000000E+00  0.00000000E+00
  0.00000000E+00  0.00000000E+00  0.00000000E+00
  0.00000000E+00  0.00000000E+00  0.00000000E+00
  0.00000000E+00  0.00000000E+00  0.00000000E+00
  0.00000000E+00  0.00000000E+00  0.00000000E+00
  0.00000000E+00  0.00000000E+00  0.00000000E+00
  0.00000000E+00  0.00000000E+00  0.00000000E+00
