 Ag Bi P Se As                          
   1.00000000000000     
   -33.7869600000000005    0.0000000000000000    0.0000000000000000
     0.0000000000000000  -11.2896520000000002    0.0000000000000000
    -1.1848240000000001    0.0000000000000000   21.6815710000000017
   Ag   Bi   P    Se   As
    10    10    20   108    32
Direct
  0.0028824751916931  0.0043441185725784  0.4362069858654961
  0.8028853366465829  0.0043515426801968  0.4362078960179377
  0.9028961171355021  0.5045211325171455  0.4364861653198886
  0.6028873140332204  0.0043124934253910  0.4361951100326489
  0.7028824205108991  0.5044840709292396  0.4364813158046233
  0.4028826471108917  0.0043655704824898  0.4362115107799009
  0.5028942103663889  0.5045235859710020  0.4364847704935506
  0.2028892414503014  0.0043172122564843  0.4361949260554275
  0.3028902089311986  0.5044982229416027  0.4364852386261776
  0.1028880249939096  0.5045007270583244  0.4364820598313233
  0.8993511859991489  0.8310177185092033  0.4733182228123280
 -0.0006329269277873  0.3309555024887718  0.4733560456981038
  0.6993583735148279  0.8309972326402801  0.4733244307457252
  0.7993624153428567  0.3309516590258163  0.4733627153933787
  0.4993559653803404  0.8310217250755731  0.4733130517451321
  0.5993628951658103  0.3309404514680297  0.4733572880757029
  0.2993552602423747  0.8310044609642323  0.4733236702974598
  0.3993687504522857  0.3309606021485238  0.4733582981261130
  0.0993595459400694  0.8310104593283534  0.4733170185364120
  0.1993614049161413  0.3309388424176418  0.4733611421617626
  0.0013465523481264  0.6681240112382182  0.4114635948296669
  0.8013476310055544  0.6681181833095953  0.4114749742070599
  0.9013719986369095  0.1681662514687635  0.4115447397582220
  0.6013465897816491  0.6681161090536800  0.4114611945423897
  0.7013713230297788  0.1681537684123304  0.4115434043201318
  0.4013479077573464  0.6681237012988834  0.4114708394874445
  0.5013700858013722  0.1681651582422281  0.4115415304392153
  0.2013481170110581  0.6681135145680335  0.4114681987113246
  0.3013742405620920  0.1681597471731022  0.4115451110338021
  0.1013692519312126  0.1681586666460604  0.4115411566168311
 -0.0017360452238501  0.6659972373501098  0.5167674341064906
  0.7982654900953516  0.6659901175380734  0.5167791217564425
  0.8982742582163737  0.1659514872426657  0.5168488449574821
  0.5982627802969310  0.6659979439386831  0.5167653707038684
  0.6982718610949872  0.1659470788965529  0.5168472985568702
  0.3982661806767540  0.6659921292786046  0.5167747993592857
  0.4982707542086383  0.1659521053259354  0.5168452965073180
  0.1982642787841012  0.6659944581124857  0.5167723484184318
  0.2982763604830988  0.1659498097268974  0.5168492938805921
  0.0982694026375428  0.1659504631066989  0.5168446396281356
  0.8634773607325729  0.6847658715066485  0.3758856857034761
  0.9634939333361888  0.1847740086557591  0.3759205692310381
  0.6634787421998080  0.6847714625246345  0.3758803789854650
  0.7634933318880505  0.1847799324106032  0.3759187525103000
  0.4634781620703224  0.6847724903459967  0.3758814678140512
  0.5634936376402676  0.1847646734221635  0.3759197355905207
  0.2634792511806119  0.6847657145891198  0.3758847688875917
  0.3634951865657476  0.1847830276202614  0.3759192115779922
  0.0634782465066041  0.6847751093167417  0.3758792690554860
  0.1634930199968615  0.1847688444342676  0.3759190394027225
  0.9648881410852691  0.8187010039940261  0.3800668644602169
  0.7648923042276612  0.8186973728706149  0.3800744116276215
  0.8649367396353265  0.3188570528887537  0.3802254300044821
  0.5648882489043109  0.8186885143862944  0.3800569895892870
  0.6649313318664237  0.3188293184776104  0.3802154826895244
  0.3648915357597715  0.8187048064614043  0.3800749751810041
  0.4649387381138282  0.3188599532617618  0.3802178446595456
  0.1648911942944696  0.8186863246965332  0.3800620885475287
  0.2649340172815404  0.3188387191735862  0.3802227539889922
  0.0649349257157202  0.3188453630388166  0.3802136323688086
  0.9766591595557158  0.4995371311949380  0.3787334517333707
  0.7766541850108252  0.4995335940993668  0.3787470609380529
  0.8766729990099597 -0.0003465133270214  0.3787415085044987
  0.5766590227015942  0.4995259566886066  0.3787345542913025
  0.6766795368125754 -0.0003711102458797  0.3787457142565034
  0.3766573782211644  0.4995403630890070  0.3787404503493521
  0.4766709474867485 -0.0003464764992893  0.3787396986996813
  0.1766572974481707  0.4995241586418811  0.3787423719470376
  0.2766799084860857 -0.0003613423872831  0.3787439369955354
  0.0766737515525417 -0.0003593933984866  0.3787432095063324
  0.9354438374893478  0.6358594539125743  0.5445479410168474
  0.7354463680452893  0.6358456209666916  0.5445622269782682
  0.8354464345426948  0.1358351317003877  0.5445952505911869
  0.5354437666319320  0.6358670987856849  0.5445494682292206
  0.6354466195138103  0.1358347101224366  0.5445942065702838
  0.3354459722541799  0.6358456548500430  0.5445546000448592
  0.4354449125650655  0.1358368475349109  0.5445908975935504
  0.1354458744983705  0.6358606515506929  0.5445576750797653
  0.2354489787620147  0.1358326341878403  0.5445965880768815
  0.0354448307443822  0.1358395293881152  0.5445911259067467
  0.8375327062718695  0.5194524796903137  0.5414334857657950
  0.9375206310530881  0.0193601481551843  0.5414592300506622
  0.6375296273963791  0.5194651073176859  0.5414246218330790
  0.7375220835164534  0.0193622097553646  0.5414578180650169
  0.4375350162195520  0.5194619093434515  0.5414299444253207
  0.5375207345533604  0.0193703024819175  0.5414549885158668
  0.2375301185651096  0.5194557700222395  0.5414303597154083
  0.3375234530675632  0.0193569451949999  0.5414599606727764
  0.0375325608689839  0.5194687840702840  0.5414250467394514
  0.1375212508407141  0.0193720413469832  0.5414544680195111
  0.8201284843455376  0.8389645320733106  0.5452911973515274
  0.9201613132023103  0.3388167218014316  0.5455055480082923
  0.6201269780145113  0.8389807258828886  0.5452736903346062
  0.7201571049298766  0.3388278398043632  0.5455013725086441
  0.4201309340439018  0.8389648666286187  0.5452890426698533
  0.5201569855635019  0.3388254023382506  0.5455029503410693
  0.2201274904447389  0.8389765367940244  0.5452793250825111
  0.3201622859140100  0.3388197505632256  0.5455023578060972
  0.0201299347470416  0.8389737931238629  0.5452797506959782
  0.1201553615866890  0.3388325899815036  0.5455003193561382
  0.9805324855668602  0.3577879387365516  0.8942285258811047
  0.8555267211894212  0.3577911609616388  0.8942292725995351
  0.7305248100054936  0.3577922024336308  0.8942269090037422
  0.6055353391883431  0.3577752172884650  0.8942344773896861
  0.4805298317326609  0.3578006644857221  0.8942226390187186
  0.3555275783465136  0.3577905696002133  0.8942312350699093
  0.2305334436208955  0.3577827315158397  0.8942295610789255
  0.1055246083742526  0.3577971185741727  0.8942253355106965
  0.9134689119505647  0.3852264368282468  0.0371152666429994
  0.7884624407638349  0.3852467848886423  0.0371193525540410
  0.6634689174895679  0.3852531134501839  0.0371265621107975
  0.5384656703293554  0.3852248177865415  0.0371120048887507
  0.4134695432496826  0.3852517358843164  0.0371202349355895
  0.2884669747897340  0.3852411714243821  0.0371225426110355
  0.1634661207122057  0.3852312134975872  0.0371131448544028
  0.0384664841137635  0.3852478751507655  0.0371221778551026
  0.9881596186349569  0.1235548514621967  0.0359125135261261
  0.8631560395266195  0.1235516549133798  0.0359026161152379
  0.7381560687137708  0.1235549336145299  0.0359084479829586
  0.6131576170570775  0.1235568313982122  0.0359263109594027
  0.4881546804046712  0.1235539000057653  0.0358971594444407
  0.3631614598853434  0.1235509382607192  0.0359094841237088
  0.2381549029300018  0.1235592894145526  0.0359126130703900
  0.1131542190160875  0.1235485161106596  0.0359008434777474
  0.9291842186398618  0.6232451367847831  0.8992994731566073
  0.8041880447188302  0.6232500380806932  0.8993065516761584
  0.6791785656210761  0.6232517419677147  0.8992992232699126
  0.5541912134464615  0.6232458232685227  0.8992999743416894
  0.4291880765271561  0.6232475732481094  0.8993024248291049
  0.3041828791224822  0.6232531704761730  0.8993020001726938
  0.1791879203799961  0.6232433737656735  0.8993039379910902
  0.0541837250799199  0.6232468517510180  0.8992999746372734
  0.9368705399711277  0.8578062285491127  0.0409825250833398
  0.8118722710720075  0.8578137419022783  0.0409815921067922
  0.6868670648137912  0.8578083756201551  0.0409814155945178
  0.5618680549672347  0.8578003746276001  0.0409913121916190
  0.4368727680251724  0.8578101331809269  0.0409743202246246
  0.3118696971369455  0.8578125106979047  0.0409816516917548
  0.1868700661783546  0.8578112763800106  0.0409869002467211
  0.0618691041382739  0.8578066626544498  0.0409762227355886
  0.0038511597376841  0.8850590288682215  0.8979719982678012
  0.8788543307744541  0.8850702965557700  0.8979701684540885
  0.7538517624779262  0.8850418639466155  0.8979779465524488
  0.6288471858683724  0.8850829922319086  0.8979784496938431
  0.5038617864717926  0.8850616312452096  0.8979701973521711
  0.3788509051970752  0.8850490937833617  0.8979718828316181
  0.2538515378724396  0.8850759934294649  0.8979759845249138
  0.1288546972341938  0.8850442874085294  0.8979739377191485
  0.9010815998609185  0.2427096172963166  0.9588675901785747
  0.7760785586068004  0.2427226701556564  0.9588736845172526
  0.6510853234828669  0.2427093797532278  0.9588902469242039
  0.5260807883242438  0.2427107036989528  0.9588618617318838
  0.4010837775937491  0.2427261004141517  0.9588760581383879
  0.2760841642556014  0.2427093221358701  0.9588794420526993
  0.1510776286055490  0.2427144318397932  0.9588659940437281
  0.0260843585225687  0.2427188074078197  0.9588779385103923
  0.9633844059896157  0.5007502412511664  0.9727005216996755
  0.8383864762252066  0.5007492426077992  0.9727069699460618
  0.7133823636246353  0.5007622241256825  0.9726979098135665
  0.5883871108326646  0.5007437374775744  0.9727030245599190
  0.4633898982570397  0.5007555293324739  0.9727033897310597
  0.3383836440367841  0.5007573619497431  0.9727021080156645
  0.2133872006014142  0.5007434484091667  0.9727034529531020
  0.0883848497059003  0.5007583654089875  0.9727020740995774
  0.9540755214687183  0.0006440956680105  0.9624617410793405
  0.8290719750501546  0.0006391552045869  0.9624514621577003
  0.7040743867888434  0.0006359332620935  0.9624563485406746
  0.5790709219571616  0.0006513359928870  0.9624756292488127
  0.4540753525921803  0.0006326694760884  0.9624444866820911
  0.3290766559790776  0.0006417267592623  0.9624568438961529
  0.2040703771944965  0.0006463554171884  0.9624626290742704
  0.0790733268359740  0.0006299971067202  0.9624473980004521
  0.8913262603908028  0.7427426569483122  0.9763013305893734
  0.7663278349823168  0.7427246120096992  0.9763125097426274
  0.6413209999541737  0.7427446111087825  0.9763033015855325
  0.5163292211169752  0.7427314945775368  0.9763018584812364
  0.3913274951265610  0.7427282404211650  0.9763043895595924
  0.2663238353330700  0.7427451418807710  0.9763052455484066
  0.1413290456895475  0.7427270030531831  0.9763090712420165
  0.0163238069393417  0.7427309256090628  0.9763023817923770
 
  0.00000000E+00  0.00000000E+00  0.00000000E+00
  0.00000000E+00  0.00000000E+00  0.00000000E+00
  0.00000000E+00  0.00000000E+00  0.00000000E+00
  0.00000000E+00  0.00000000E+00  0.00000000E+00
  0.00000000E+00  0.00000000E+00  0.00000000E+00
  0.00000000E+00  0.00000000E+00  0.00000000E+00
  0.00000000E+00  0.00000000E+00  0.00000000E+00
  0.00000000E+00  0.00000000E+00  0.00000000E+00
  0.00000000E+00  0.00000000E+00  0.00000000E+00
  0.00000000E+00  0.00000000E+00  0.00000000E+00
  0.00000000E+00  0.00000000E+00  0.00000000E+00
  0.00000000E+00  0.00000000E+00  0.00000000E+00
  0.00000000E+00  0.00000000E+00  0.00000000E+00
  0.00000000E+00  0.00000000E+00  0.00000000E+00
  0.00000000E+00  0.00000000E+00  0.00000000E+00
  0.00000000E+00  0.00000000E+00  0.00000000E+00
  0.00000000E+00  0.00000000E+00  0.00000000E+00
  0.00000000E+00  0.00000000E+00  0.00000000E+00
  0.00000000E+00  0.00000000E+00  0.00000000E+00
  0.00000000E+00  0.00000000E+00  0.00000000E+00
  0.00000000E+00  0.00000000E+00  0.00000000E+00
  0.00000000E+00  0.00000000E+00  0.00000000E+00
  0.00000000E+00  0.00000000E+00  0.00000000E+00
  0.00000000E+00  0.00000000E+00  0.00000000E+00
  0.00000000E+00  0.00000000E+00  0.00000000E+00
  0.00000000E+00  0.00000000E+00  0.00000000E+00
  0.00000000E+00  0.00000000E+00  0.00000000E+00
  0.00000000E+00  0.00000000E+00  0.00000000E+00
  0.00000000E+00  0.00000000E+00  0.00000000E+00
  0.00000000E+00  0.00000000E+00  0.00000000E+00
  0.00000000E+00  0.00000000E+00  0.00000000E+00
  0.00000000E+00  0.00000000E+00  0.00000000E+00
  0.00000000E+00  0.00000000E+00  0.00000000E+00
  0.00000000E+00  0.00000000E+00  0.00000000E+00
  0.00000000E+00  0.00000000E+00  0.00000000E+00
  0.00000000E+00  0.00000000E+00  0.00000000E+00
  0.00000000E+00  0.00000000E+00  0.00000000E+00
  0.00000000E+00  0.00000000E+00  0.00000000E+00
  0.00000000E+00  0.00000000E+00  0.00000000E+00
  0.00000000E+00  0.00000000E+00  0.00000000E+00
  0.00000000E+00  0.00000000E+00  0.00000000E+00
  0.00000000E+00  0.00000000E+00  0.00000000E+00
  0.00000000E+00  0.00000000E+00  0.00000000E+00
  0.00000000E+00  0.00000000E+00  0.00000000E+00
  0.00000000E+00  0.00000000E+00  0.00000000E+00
  0.00000000E+00  0.00000000E+00  0.00000000E+00
  0.00000000E+00  0.00000000E+00  0.00000000E+00
  0.00000000E+00  0.00000000E+00  0.00000000E+00
  0.00000000E+00  0.00000000E+00  0.00000000E+00
  0.00000000E+00  0.00000000E+00  0.00000000E+00
  0.00000000E+00  0.00000000E+00  0.00000000E+00
  0.00000000E+00  0.00000000E+00  0.00000000E+00
  0.00000000E+00  0.00000000E+00  0.00000000E+00
  0.00000000E+00  0.00000000E+00  0.00000000E+00
  0.00000000E+00  0.00000000E+00  0.00000000E+00
  0.00000000E+00  0.00000000E+00  0.00000000E+00
  0.00000000E+00  0.00000000E+00  0.00000000E+00
  0.00000000E+00  0.00000000E+00  0.00000000E+00
  0.00000000E+00  0.00000000E+00  0.00000000E+00
  0.00000000E+00  0.00000000E+00  0.00000000E+00
  0.00000000E+00  0.00000000E+00  0.00000000E+00
  0.00000000E+00  0.00000000E+00  0.00000000E+00
  0.00000000E+00  0.00000000E+00  0.00000000E+00
  0.00000000E+00  0.00000000E+00  0.00000000E+00
  0.00000000E+00  0.00000000E+00  0.00000000E+00
  0.00000000E+00  0.00000000E+00  0.00000000E+00
  0.00000000E+00  0.00000000E+00  0.00000000E+00
  0.00000000E+00  0.00000000E+00  0.00000000E+00
  0.00000000E+00  0.00000000E+00  0.00000000E+00
  0.00000000E+00  0.00000000E+00  0.00000000E+00
  0.00000000E+00  0.00000000E+00  0.00000000E+00
  0.00000000E+00  0.00000000E+00  0.00000000E+00
  0.00000000E+00  0.00000000E+00  0.00000000E+00
  0.00000000E+00  0.00000000E+00  0.00000000E+00
  0.00000000E+00  0.00000000E+00  0.00000000E+00
  0.00000000E+00  0.00000000E+00  0.00000000E+00
  0.00000000E+00  0.00000000E+00  0.00000000E+00
  0.00000000E+00  0.00000000E+00  0.00000000E+00
  0.00000000E+00  0.00000000E+00  0.00000000E+00
  0.00000000E+00  0.00000000E+00  0.00000000E+00
  0.00000000E+00  0.00000000E+00  0.00000000E+00
  0.00000000E+00  0.00000000E+00  0.00000000E+00
  0.00000000E+00  0.00000000E+00  0.00000000E+00
  0.00000000E+00  0.00000000E+00  0.00000000E+00
  0.00000000E+00  0.00000000E+00  0.00000000E+00
  0.00000000E+00  0.00000000E+00  0.00000000E+00
  0.00000000E+00  0.00000000E+00  0.00000000E+00
  0.00000000E+00  0.00000000E+00  0.00000000E+00
  0.00000000E+00  0.00000000E+00  0.00000000E+00
  0.00000000E+00  0.00000000E+00  0.00000000E+00
  0.00000000E+00  0.00000000E+00  0.00000000E+00
  0.00000000E+00  0.00000000E+00  0.00000000E+00
  0.00000000E+00  0.00000000E+00  0.00000000E+00
  0.00000000E+00  0.00000000E+00  0.00000000E+00
  0.00000000E+00  0.00000000E+00  0.00000000E+00
  0.00000000E+00  0.00000000E+00  0.00000000E+00
  0.00000000E+00  0.00000000E+00  0.00000000E+00
  0.00000000E+00  0.00000000E+00  0.00000000E+00
  0.00000000E+00  0.00000000E+00  0.00000000E+00
  0.00000000E+00  0.00000000E+00  0.00000000E+00
  0.00000000E+00  0.00000000E+00  0.00000000E+00
  0.00000000E+00  0.00000000E+00  0.00000000E+00
  0.00000000E+00  0.00000000E+00  0.00000000E+00
  0.00000000E+00  0.00000000E+00  0.00000000E+00
  0.00000000E+00  0.00000000E+00  0.00000000E+00
  0.00000000E+00  0.00000000E+00  0.00000000E+00
  0.00000000E+00  0.00000000E+00  0.00000000E+00
  0.00000000E+00  0.00000000E+00  0.00000000E+00
  0.00000000E+00  0.00000000E+00  0.00000000E+00
  0.00000000E+00  0.00000000E+00  0.00000000E+00
  0.00000000E+00  0.00000000E+00  0.00000000E+00
  0.00000000E+00  0.00000000E+00  0.00000000E+00
  0.00000000E+00  0.00000000E+00  0.00000000E+00
  0.00000000E+00  0.00000000E+00  0.00000000E+00
  0.00000000E+00  0.00000000E+00  0.00000000E+00
  0.00000000E+00  0.00000000E+00  0.00000000E+00
  0.00000000E+00  0.00000000E+00  0.00000000E+00
  0.00000000E+00  0.00000000E+00  0.00000000E+00
  0.00000000E+00  0.00000000E+00  0.00000000E+00
  0.00000000E+00  0.00000000E+00  0.00000000E+00
  0.00000000E+00  0.00000000E+00  0.00000000E+00
  0.00000000E+00  0.00000000E+00  0.00000000E+00
  0.00000000E+00  0.00000000E+00  0.00000000E+00
  0.00000000E+00  0.00000000E+00  0.00000000E+00
  0.00000000E+00  0.00000000E+00  0.00000000E+00
  0.00000000E+00  0.00000000E+00  0.00000000E+00
  0.00000000E+00  0.00000000E+00  0.00000000E+00
  0.00000000E+00  0.00000000E+00  0.00000000E+00
  0.00000000E+00  0.00000000E+00  0.00000000E+00
  0.00000000E+00  0.00000000E+00  0.00000000E+00
  0.00000000E+00  0.00000000E+00  0.00000000E+00
  0.00000000E+00  0.00000000E+00  0.00000000E+00
  0.00000000E+00  0.00000000E+00  0.00000000E+00
  0.00000000E+00  0.00000000E+00  0.00000000E+00
  0.00000000E+00  0.00000000E+00  0.00000000E+00
  0.00000000E+00  0.00000000E+00  0.00000000E+00
  0.00000000E+00  0.00000000E+00  0.00000000E+00
  0.00000000E+00  0.00000000E+00  0.00000000E+00
  0.00000000E+00  0.00000000E+00  0.00000000E+00
  0.00000000E+00  0.00000000E+00  0.00000000E+00
  0.00000000E+00  0.00000000E+00  0.00000000E+00
  0.00000000E+00  0.00000000E+00  0.00000000E+00
  0.00000000E+00  0.00000000E+00  0.00000000E+00
  0.00000000E+00  0.00000000E+00  0.00000000E+00
  0.00000000E+00  0.00000000E+00  0.00000000E+00
  0.00000000E+00  0.00000000E+00  0.00000000E+00
  0.00000000E+00  0.00000000E+00  0.00000000E+00
  0.00000000E+00  0.00000000E+00  0.00000000E+00
  0.00000000E+00  0.00000000E+00  0.00000000E+00
  0.00000000E+00  0.00000000E+00  0.00000000E+00
  0.00000000E+00  0.00000000E+00  0.00000000E+00
  0.00000000E+00  0.00000000E+00  0.00000000E+00
  0.00000000E+00  0.00000000E+00  0.00000000E+00
  0.00000000E+00  0.00000000E+00  0.00000000E+00
  0.00000000E+00  0.00000000E+00  0.00000000E+00
  0.00000000E+00  0.00000000E+00  0.00000000E+00
  0.00000000E+00  0.00000000E+00  0.00000000E+00
  0.00000000E+00  0.00000000E+00  0.00000000E+00
  0.00000000E+00  0.00000000E+00  0.00000000E+00
  0.00000000E+00  0.00000000E+00  0.00000000E+00
  0.00000000E+00  0.00000000E+00  0.00000000E+00
  0.00000000E+00  0.00000000E+00  0.00000000E+00
  0.00000000E+00  0.00000000E+00  0.00000000E+00
  0.00000000E+00  0.00000000E+00  0.00000000E+00
  0.00000000E+00  0.00000000E+00  0.00000000E+00
  0.00000000E+00  0.00000000E+00  0.00000000E+00
  0.00000000E+00  0.00000000E+00  0.00000000E+00
  0.00000000E+00  0.00000000E+00  0.00000000E+00
  0.00000000E+00  0.00000000E+00  0.00000000E+00
  0.00000000E+00  0.00000000E+00  0.00000000E+00
  0.00000000E+00  0.00000000E+00  0.00000000E+00
  0.00000000E+00  0.00000000E+00  0.00000000E+00
  0.00000000E+00  0.00000000E+00  0.00000000E+00
  0.00000000E+00  0.00000000E+00  0.00000000E+00
  0.00000000E+00  0.00000000E+00  0.00000000E+00
  0.00000000E+00  0.00000000E+00  0.00000000E+00
  0.00000000E+00  0.00000000E+00  0.00000000E+00
  0.00000000E+00  0.00000000E+00  0.00000000E+00
  0.00000000E+00  0.00000000E+00  0.00000000E+00
  0.00000000E+00  0.00000000E+00  0.00000000E+00
