 Ag Bi P Se                             
   1.00000000000000     
    -6.7174909999999999    0.0000000000000000    0.0000000000000000
    -3.3587449999999999   -5.8175179999999997    0.0000000000000000
     0.0000000000000000    0.0000000000000000   23.5978729999999999
   Ag   Bi   P    Se
     2     2     4    12
Direct
  0.0000000000000000 -0.0000000000000000  0.4801073545509705
  0.0000000000000000 -0.0000000000000000  0.7662785325968379
  0.6666659999999993  0.6666669999999968  0.4779296415521262
  0.6666659999999993  0.6666669999999968  0.7683947437454520
  0.3333340000000007  0.3333330000000032  0.4307176723165289
  0.3333340000000007  0.3333330000000032  0.5266954083830897
  0.3333340000000007  0.3333330000000032  0.7194938729505046
  0.3333340000000007  0.3333330000000032  0.8154854365726774
  0.6448613330810997  0.3311578636919317  0.4023887138675823
  0.0239798032269781  0.6448623330810972  0.4023887138675823
  0.3311568636919343  0.0239808032269756  0.4023887138675823
  0.0231576854868911  0.3322367719704403  0.5548483551883630
  0.6446055425426684  0.0231576854868911  0.5548483551883630
  0.3322367719704403  0.6446055425426684  0.5548483551883630
  0.6444781583679916  0.3326048486265212  0.6913569825900425
  0.0229159930054901  0.6444791583679891  0.6913569825900425
  0.3326038486265238  0.0229169930054875  0.6913569825900425
  0.0242042562829687  0.3308248505203877  0.8438610607979476
  0.6449708931966435  0.0242042562829687  0.8438610607979476
  0.3308248505203877  0.6449708931966435  0.8438610607979476
 
  0.00000000E+00  0.00000000E+00  0.00000000E+00
  0.00000000E+00  0.00000000E+00  0.00000000E+00
  0.00000000E+00  0.00000000E+00  0.00000000E+00
  0.00000000E+00  0.00000000E+00  0.00000000E+00
  0.00000000E+00  0.00000000E+00  0.00000000E+00
  0.00000000E+00  0.00000000E+00  0.00000000E+00
  0.00000000E+00  0.00000000E+00  0.00000000E+00
  0.00000000E+00  0.00000000E+00  0.00000000E+00
  0.00000000E+00  0.00000000E+00  0.00000000E+00
  0.00000000E+00  0.00000000E+00  0.00000000E+00
  0.00000000E+00  0.00000000E+00  0.00000000E+00
  0.00000000E+00  0.00000000E+00  0.00000000E+00
  0.00000000E+00  0.00000000E+00  0.00000000E+00
  0.00000000E+00  0.00000000E+00  0.00000000E+00
  0.00000000E+00  0.00000000E+00  0.00000000E+00
  0.00000000E+00  0.00000000E+00  0.00000000E+00
  0.00000000E+00  0.00000000E+00  0.00000000E+00
  0.00000000E+00  0.00000000E+00  0.00000000E+00
  0.00000000E+00  0.00000000E+00  0.00000000E+00
  0.00000000E+00  0.00000000E+00  0.00000000E+00
