Ag1Bi1P2Se6Sc2C1Cl2                     
   1.00000000000000     
    -6.8651140000000002    0.0000000000000000    0.0000000000000000
    -3.4325580000000002   -5.9453620000000003    0.0000000000000000
     0.0000000000000000    0.0000000000000000   25.8052160000000015
   Ag   Bi   P    Se   C    Cl   Sc
     1     1     2     6     4     8     8
Direct
 -0.0000000000000000  0.0000000000000000  0.3860663221383963
  0.6666659999999993  0.6666669999999968  0.3865884794615321
  0.3333340000000007  0.3333330000000032  0.3431275473225551
  0.3333340000000007  0.3333330000000032  0.4300723183673267
  0.6374382513859002  0.3367154933463997  0.3182901970904579
  0.0258452552677027  0.6374392513858976  0.3182901970904579
  0.3367144933464022  0.0258462552677002  0.3182901970904579
  0.0259278758604732  0.3363588033156304  0.4548417213382903
  0.6377133208238964  0.0259278758604732  0.4548417213382903
  0.3363588033156304  0.6377133208238963  0.4548417213382903
 -0.0000000000000000  0.0000000000000000  0.9002091973394222
  0.5004334760324369  0.0000004841623090  0.9002158839761729
  0.0000004841623090  0.4995660398052544  0.9002158839761729
  0.4995660398052544  0.5004334760324369  0.9002158839761729
  0.6666669999999968  0.6666664999999981  0.7883118270028104
  0.1668434260039337  0.6666624140882724  0.7883147794072682
  0.6666629140882712  0.1664941599077863  0.7883147794072682
  0.1664946599077851  0.1668429260039350  0.7883147794072682
  0.8331616246383773  0.8335107195894134  0.0120884929973150
  0.3333271557722176  0.8331621246383760  0.0120884929973150
  0.8335102195894146  0.3333276557722163  0.0120884929973150
  0.3333330000000032  0.3333335000000019  0.0120852019398968
  0.8331816057152985  0.8334917243525722  0.8531446223769094
  0.3333261699321374  0.8331821057152973  0.8531446223769094
  0.8334912243525735  0.3333266699321362  0.8531446223769094
  0.3333330000000032  0.3333335000000019  0.8531442466887329
  0.6666669999999968  0.6666664999999981  0.9472525458399130
  0.1668223434786263  0.6666679557691546  0.9472517446097989
  0.6666684557691533  0.1665097007522048  0.9472517446097989
  0.1665102007522035  0.1668218434786276  0.9472517446097989
 
  0.00000000E+00  0.00000000E+00  0.00000000E+00
  0.00000000E+00  0.00000000E+00  0.00000000E+00
  0.00000000E+00  0.00000000E+00  0.00000000E+00
  0.00000000E+00  0.00000000E+00  0.00000000E+00
  0.00000000E+00  0.00000000E+00  0.00000000E+00
  0.00000000E+00  0.00000000E+00  0.00000000E+00
  0.00000000E+00  0.00000000E+00  0.00000000E+00
  0.00000000E+00  0.00000000E+00  0.00000000E+00
  0.00000000E+00  0.00000000E+00  0.00000000E+00
  0.00000000E+00  0.00000000E+00  0.00000000E+00
  0.00000000E+00  0.00000000E+00  0.00000000E+00
  0.00000000E+00  0.00000000E+00  0.00000000E+00
  0.00000000E+00  0.00000000E+00  0.00000000E+00
  0.00000000E+00  0.00000000E+00  0.00000000E+00
  0.00000000E+00  0.00000000E+00  0.00000000E+00
  0.00000000E+00  0.00000000E+00  0.00000000E+00
  0.00000000E+00  0.00000000E+00  0.00000000E+00
  0.00000000E+00  0.00000000E+00  0.00000000E+00
  0.00000000E+00  0.00000000E+00  0.00000000E+00
  0.00000000E+00  0.00000000E+00  0.00000000E+00
  0.00000000E+00  0.00000000E+00  0.00000000E+00
  0.00000000E+00  0.00000000E+00  0.00000000E+00
  0.00000000E+00  0.00000000E+00  0.00000000E+00
  0.00000000E+00  0.00000000E+00  0.00000000E+00
  0.00000000E+00  0.00000000E+00  0.00000000E+00
  0.00000000E+00  0.00000000E+00  0.00000000E+00
  0.00000000E+00  0.00000000E+00  0.00000000E+00
  0.00000000E+00  0.00000000E+00  0.00000000E+00
  0.00000000E+00  0.00000000E+00  0.00000000E+00
  0.00000000E+00  0.00000000E+00  0.00000000E+00
