 Ag Bi P Se Br Nb                       
   1.00000000000000     
    -6.6981880000000000    0.0000000000000000    0.0000000000000000
    -3.3490940000000000   -5.8869769999999999    0.0000000000000000
    -2.5597610000000000    0.0000000000000000   24.2821670000000012
   Ag   Bi   P    Se   Br   Nb
     1     1     2    10     4     2
Direct
  0.0038897134983712  0.9107180834689627  0.4215201733593430
  0.6504813669469096  0.6896982685509455  0.4090029736671629
  0.3605106314512753  0.3446387328025926  0.3637554438508550
  0.3083862960627592  0.3432622433319208  0.4571884389132632
  0.6902460250620788  0.3325343015080887  0.3426784482876556
  0.0604379400026432  0.6535728669904439  0.3342194124035965
  0.3646477666462566  0.0430027214335063  0.3342046339837549
  0.9882683053680108  0.3345820007653629  0.4747706511229323
  0.5977224965355610  0.0378269720422703  0.4892205452937287
  0.3070076752117775  0.6433051288738900  0.4901470658360900
  0.9983019306889190  0.0000229031530994  0.9913054678972598
  0.2817335648415600  0.0000297404657860  0.9309322547195655
  0.7185829145988731  0.0000267333499731  0.8681385289325892
  0.0019957798357955  0.0000270842655795  0.8077527147546052
  0.8683294313836463  0.5997410413947515  0.9619288978486858
  0.5323080772438010  0.5997767582811722  0.8371210736479171
  0.1320518035235166  0.4002440920155516  0.8371238281366244
  0.4680832489882493  0.4002780810921440  0.9619253903662291
  0.8732670658113540  0.2538356286341329  0.8995291013076165
  0.1270799662986615  0.7462106175798128  0.8995288549498514
 
  0.00000000E+00  0.00000000E+00  0.00000000E+00
  0.00000000E+00  0.00000000E+00  0.00000000E+00
  0.00000000E+00  0.00000000E+00  0.00000000E+00
  0.00000000E+00  0.00000000E+00  0.00000000E+00
  0.00000000E+00  0.00000000E+00  0.00000000E+00
  0.00000000E+00  0.00000000E+00  0.00000000E+00
  0.00000000E+00  0.00000000E+00  0.00000000E+00
  0.00000000E+00  0.00000000E+00  0.00000000E+00
  0.00000000E+00  0.00000000E+00  0.00000000E+00
  0.00000000E+00  0.00000000E+00  0.00000000E+00
  0.00000000E+00  0.00000000E+00  0.00000000E+00
  0.00000000E+00  0.00000000E+00  0.00000000E+00
  0.00000000E+00  0.00000000E+00  0.00000000E+00
  0.00000000E+00  0.00000000E+00  0.00000000E+00
  0.00000000E+00  0.00000000E+00  0.00000000E+00
  0.00000000E+00  0.00000000E+00  0.00000000E+00
  0.00000000E+00  0.00000000E+00  0.00000000E+00
  0.00000000E+00  0.00000000E+00  0.00000000E+00
  0.00000000E+00  0.00000000E+00  0.00000000E+00
  0.00000000E+00  0.00000000E+00  0.00000000E+00
