Ag1Bi1P2Se6Sc2Cl2                       
   1.00000000000000     
    -6.9325539999999997    0.0000000000000000    0.0000000000000000
    -3.4662779999999995   -6.0037680000000000    0.0000000000000000
     0.0000000000000000    0.0000000000000000   25.8001579999999997
   Ag   Bi   P    Se   Cl   Sc
     1     1     2     6     8     8
Direct
  0.0000000000000000 -0.0000000000000000  0.3844583129116491
  0.6666659999999993  0.6666669999999968  0.3870464135467901
  0.3333340000000007  0.3333330000000032  0.3435137944259391
  0.3333340000000007  0.3333330000000032  0.4302966481789425
  0.6344514756418715  0.3388850170657444  0.3191785961430403
  0.0266625072923863  0.6344524756418690  0.3191785961430403
  0.3388840170657469  0.0266635072923838  0.3191785961430403
  0.0266965122957773  0.3387121746995119  0.4545736149716780
  0.6345913130047105  0.0266965122957773  0.4545736149716780
  0.3387121746995119  0.6345913130047105  0.4545736149716780
  0.0000000000000000 -0.0000000000000000  0.7882386293824767
  0.4999971713125055  0.0000073420086515  0.7882438896923705
  0.0000073420086515  0.4999954866788430  0.7882438896923705
  0.4999954866788430  0.4999971713125055  0.7882438896923705
  0.0000000000000000 -0.0000000000000000  0.0121591798628364
  0.5000015590960555 -0.0000053941158842  0.0121436029902321
 -0.0000053941158842  0.5000038350198289  0.0121436029902321
  0.5000038350198289  0.5000015590960555  0.0121436029902321
  0.6666669999999968  0.6666664999999981  0.8516290418279607
  0.1666568986194346  0.6666859162581477  0.8516367999368265
  0.6666864162581464  0.1666571851224110  0.8516367999368265
  0.1666576851224097  0.1666563986194359  0.8516367999368265
  0.8333392226371316  0.8333407615810555  0.9488464636375440
  0.3333195157818215  0.8333397226371303  0.9488464636375440
  0.8333402615810568  0.3333200157818202  0.9488464636375440
  0.3333330000000032  0.3333335000000019  0.9488476473618001
 
  0.00000000E+00  0.00000000E+00  0.00000000E+00
  0.00000000E+00  0.00000000E+00  0.00000000E+00
  0.00000000E+00  0.00000000E+00  0.00000000E+00
  0.00000000E+00  0.00000000E+00  0.00000000E+00
  0.00000000E+00  0.00000000E+00  0.00000000E+00
  0.00000000E+00  0.00000000E+00  0.00000000E+00
  0.00000000E+00  0.00000000E+00  0.00000000E+00
  0.00000000E+00  0.00000000E+00  0.00000000E+00
  0.00000000E+00  0.00000000E+00  0.00000000E+00
  0.00000000E+00  0.00000000E+00  0.00000000E+00
  0.00000000E+00  0.00000000E+00  0.00000000E+00
  0.00000000E+00  0.00000000E+00  0.00000000E+00
  0.00000000E+00  0.00000000E+00  0.00000000E+00
  0.00000000E+00  0.00000000E+00  0.00000000E+00
  0.00000000E+00  0.00000000E+00  0.00000000E+00
  0.00000000E+00  0.00000000E+00  0.00000000E+00
  0.00000000E+00  0.00000000E+00  0.00000000E+00
  0.00000000E+00  0.00000000E+00  0.00000000E+00
  0.00000000E+00  0.00000000E+00  0.00000000E+00
  0.00000000E+00  0.00000000E+00  0.00000000E+00
  0.00000000E+00  0.00000000E+00  0.00000000E+00
  0.00000000E+00  0.00000000E+00  0.00000000E+00
  0.00000000E+00  0.00000000E+00  0.00000000E+00
  0.00000000E+00  0.00000000E+00  0.00000000E+00
  0.00000000E+00  0.00000000E+00  0.00000000E+00
  0.00000000E+00  0.00000000E+00  0.00000000E+00
