Ag2I2Pr2Te4Se2                          
   1.00000000000000     
    -4.3169909999999998    0.0000000000000000    0.0000000000000000
     0.0000000000000000   -4.3198259999999999    0.0000000000000000
     0.0000000000000000    0.0000000000000000   29.0782069999999990
   Ag   I    Pr   Se   Te
     2     2     2     2     4
Direct
  0.5000000000000000  0.5000000000000000  0.4229359955322153
  0.0000000000000000  0.0000000000000000  0.3904080166875898
  0.0000000000000000  0.5000000000000000  0.3226050358018722
  0.5000000000000000  0.0000000000000000  0.4910675841638792
  0.0000000000000000  0.0000000000000000  0.8327507575532468
  0.5000000000000000  0.5000000000000000  0.9554278433440734
  0.5000000000000000  0.5000000000000000  0.8654353599527065
  0.0000000000000000  0.0000000000000000  0.9642742594885011
  0.0000000000000000  0.5000000000000000  0.7421297975939667
  0.5000000000000000  0.0000000000000000  0.7642037993644506
  0.5000000000000000  0.0000000000000000  0.0224324328755980
  0.0000000000000000  0.5000000000000000  0.0511956027040668
 
  0.00000000E+00  0.00000000E+00  0.00000000E+00
  0.00000000E+00  0.00000000E+00  0.00000000E+00
  0.00000000E+00  0.00000000E+00  0.00000000E+00
  0.00000000E+00  0.00000000E+00  0.00000000E+00
  0.00000000E+00  0.00000000E+00  0.00000000E+00
  0.00000000E+00  0.00000000E+00  0.00000000E+00
  0.00000000E+00  0.00000000E+00  0.00000000E+00
  0.00000000E+00  0.00000000E+00  0.00000000E+00
  0.00000000E+00  0.00000000E+00  0.00000000E+00
  0.00000000E+00  0.00000000E+00  0.00000000E+00
  0.00000000E+00  0.00000000E+00  0.00000000E+00
  0.00000000E+00  0.00000000E+00  0.00000000E+00
