Ag2I2Sn2Se2                             
   1.00000000000000     
    -4.3154190000000003    0.0000000000000000    0.0000000000000000
     0.0000000000000000   -4.3154190000000003    0.0000000000000000
     0.0000000000000000    0.0000000000000000   22.7495860000000008
   Ag   I    Se   Sn
     2     2     2     2
Direct
  0.5000000000000000  0.5000000000000000  0.5305479175559009
  0.0000000000000000  0.0000000000000000  0.5305479175559009
  0.0000000000000000  0.5000000000000000  0.4291262737588504
  0.5000000000000000  0.0000000000000000  0.6324188709773758
  0.5000000000000000  0.0000000000000000  0.9789431078680917
  0.0000000000000000  0.5000000000000000  0.7982506776367834
  0.5000000000000000  0.0000000000000000  0.7993939038293324
  0.0000000000000000  0.5000000000000000  0.9776532573723852
 
  0.00000000E+00  0.00000000E+00  0.00000000E+00
  0.00000000E+00  0.00000000E+00  0.00000000E+00
  0.00000000E+00  0.00000000E+00  0.00000000E+00
  0.00000000E+00  0.00000000E+00  0.00000000E+00
  0.00000000E+00  0.00000000E+00  0.00000000E+00
  0.00000000E+00  0.00000000E+00  0.00000000E+00
  0.00000000E+00  0.00000000E+00  0.00000000E+00
  0.00000000E+00  0.00000000E+00  0.00000000E+00
