 Ag Bi P Se Cl Nb                       
   1.00000000000000     
    -3.1751920000000000   -5.7620209999999998    0.0000000000000000
     3.1836620000000000   -5.7620209999999998    0.0000000000000000
     2.3023810000000000    1.8525720000000001   24.3966290000000008
   Ag   Bi   P    Se   Cl   Nb
     1     1     2    10     4     2
Direct
  0.9380739547638567  0.1740223594084983  0.3717065883271798
  0.5515541570475521  0.1720227157920231  0.4753141223551898
  0.6348018333981312  0.7679780512530960  0.3452454485791537
  0.5962890687056627  0.6376179980521403  0.5030532241820646
  0.3376656043321211  0.1323296433188878  0.3423882370727399
  0.9506427141059701  0.7215379589084864  0.3979907645957935
  0.5847594989758849  0.5031641369421874  0.3052025908265560
  0.9733542284064651  0.2118813904078036  0.4768805639567900
  0.4580552886178947  0.4919142357775989  0.5605113741015549
  0.7674208409250335  0.8001526113443983  0.5548158924077378
  0.9128082018143963  0.2711863696745507  0.8813108318574070
  0.8615576014086115  0.2637517552734385  0.6971120638050885
  0.1710210598156814  0.9732705295574006  0.7557542507949305
  0.6012400738630925  0.5642251546939012  0.8235730852330818
  0.0124790094077572  0.7496626803257116  0.8469572874781263
  0.7578530782172699  0.7886707784176763  0.7318134912606010
  0.4236956845609296  0.1606902841218637  0.8469421627433130
  0.3475065370051076  0.3783846840491998  0.7317291552771902
  0.7545497420529151  0.1383943053579428  0.7893129611597470
  0.0163148225756648  0.4001553573231771  0.7894005049028983
 
  0.00000000E+00  0.00000000E+00  0.00000000E+00
  0.00000000E+00  0.00000000E+00  0.00000000E+00
  0.00000000E+00  0.00000000E+00  0.00000000E+00
  0.00000000E+00  0.00000000E+00  0.00000000E+00
  0.00000000E+00  0.00000000E+00  0.00000000E+00
  0.00000000E+00  0.00000000E+00  0.00000000E+00
  0.00000000E+00  0.00000000E+00  0.00000000E+00
  0.00000000E+00  0.00000000E+00  0.00000000E+00
  0.00000000E+00  0.00000000E+00  0.00000000E+00
  0.00000000E+00  0.00000000E+00  0.00000000E+00
  0.00000000E+00  0.00000000E+00  0.00000000E+00
  0.00000000E+00  0.00000000E+00  0.00000000E+00
  0.00000000E+00  0.00000000E+00  0.00000000E+00
  0.00000000E+00  0.00000000E+00  0.00000000E+00
  0.00000000E+00  0.00000000E+00  0.00000000E+00
  0.00000000E+00  0.00000000E+00  0.00000000E+00
  0.00000000E+00  0.00000000E+00  0.00000000E+00
  0.00000000E+00  0.00000000E+00  0.00000000E+00
  0.00000000E+00  0.00000000E+00  0.00000000E+00
  0.00000000E+00  0.00000000E+00  0.00000000E+00
