Ag1Bi1P2Se6Ti1S2                        
   1.00000000000000     
    -6.8193140000000003    0.0000000000000000    0.0000000000000000
    -3.4096580000000003   -5.9056980000000001    0.0000000000000000
     0.0000000000000000    0.0000000000000000   22.8367070000000005
   Ag   Bi   P    Se   S    Ti
     1     1     2     6     8     4
Direct
 -0.0000000000000000 -0.0000000000000000  0.4386898463377945
  0.6666659999999993  0.6666669999999968  0.4384397196065613
  0.3333340000000007  0.3333330000000032  0.3891401515002176
  0.3333340000000007  0.3333330000000032  0.4875873518640614
  0.6396318646481065  0.3352795699769615  0.3607410213360159
  0.0250875653749346  0.6396328646481040  0.3607410213360159
  0.3352785699769640  0.0250885653749321  0.3607410213360159
  0.0252158389580122  0.3352843803079013  0.5161291866243360
  0.6394997807340866  0.0252158389580122  0.5161291866243360
  0.3352843803079013  0.6394997807340866  0.5161291866243360
  0.6666669999999968  0.6666664999999981  0.8399284749438681
  0.1851277763458277  0.6777972841943631  0.8333236841699623
  0.6777977841943619  0.1370749394598019  0.8333236841699623
  0.1370754394598006  0.1851272763458290  0.8333236841699623
  0.8143637341820260  0.8633126155607842  0.9646695897801322
  0.3223231502571980  0.8143642341820247  0.9646695897801322
  0.8633121155607855  0.3223236502571968  0.9646695897801322
  0.3333330000000032  0.3333335000000019  0.9580316755594109
 -0.0000000000000000 -0.0000000000000000  0.8990736388634688
  0.5361709091614332  0.0001202742636199  0.8989277209504147
  0.0001202742636199  0.4637088165749468  0.8989277209504147
  0.4637088165749468  0.5361709091614332  0.8989277209504147
 
  0.00000000E+00  0.00000000E+00  0.00000000E+00
  0.00000000E+00  0.00000000E+00  0.00000000E+00
  0.00000000E+00  0.00000000E+00  0.00000000E+00
  0.00000000E+00  0.00000000E+00  0.00000000E+00
  0.00000000E+00  0.00000000E+00  0.00000000E+00
  0.00000000E+00  0.00000000E+00  0.00000000E+00
  0.00000000E+00  0.00000000E+00  0.00000000E+00
  0.00000000E+00  0.00000000E+00  0.00000000E+00
  0.00000000E+00  0.00000000E+00  0.00000000E+00
  0.00000000E+00  0.00000000E+00  0.00000000E+00
  0.00000000E+00  0.00000000E+00  0.00000000E+00
  0.00000000E+00  0.00000000E+00  0.00000000E+00
  0.00000000E+00  0.00000000E+00  0.00000000E+00
  0.00000000E+00  0.00000000E+00  0.00000000E+00
  0.00000000E+00  0.00000000E+00  0.00000000E+00
  0.00000000E+00  0.00000000E+00  0.00000000E+00
  0.00000000E+00  0.00000000E+00  0.00000000E+00
  0.00000000E+00  0.00000000E+00  0.00000000E+00
  0.00000000E+00  0.00000000E+00  0.00000000E+00
  0.00000000E+00  0.00000000E+00  0.00000000E+00
  0.00000000E+00  0.00000000E+00  0.00000000E+00
  0.00000000E+00  0.00000000E+00  0.00000000E+00
