Ag1Bi1P2Se6Mn1Cl2                       
   1.00000000000000     
    -6.6550599999999998    0.0000000000000000    0.0000000000000000
    -3.3275299999999999   -5.7634499999999997    0.0000000000000000
     0.0000000000000000    0.0000000000000000   22.6644199999999998
   Ag   Bi   P    Se   Cl   Mn
     1     1     2     6     8     4
Direct
  0.0000000000000000  0.0000000000000000  0.4402712092166483
  0.6666659999999993  0.6666669999999968  0.4407099147613562
  0.3333340000000007  0.3333330000000032  0.3910712348847469
  0.3333340000000007  0.3333330000000032  0.4908345859503386
  0.6462098619281671  0.3309334900833415  0.3606657907313170
  0.0228556479884866  0.6462108619281646  0.3606657907313170
  0.3309324900833440  0.0228566479884840  0.3606657907313170
  0.0222233438250515  0.3311966595211973  0.5208493037243196
  0.6465799966537510  0.0222233438250515  0.5208493037243196
  0.3311966595211973  0.6465799966537510  0.5208493037243196
  0.6666669999999968  0.6666664999999981  0.8446341670538371
  0.1736987313324506  0.6526089457311152  0.8392828908277523
  0.6526094457311139  0.1736923229364273  0.8392828908277523
  0.1736928229364260  0.1736982313324518  0.8392828908277523
  0.8263037427028193  0.8263074558503515  0.9603953056814550
  0.3473883014468379  0.8263042427028180  0.9603953056814550
  0.8263069558503527  0.3473888014468366  0.9603953056814550
  0.3333330000000032  0.3333335000000019  0.9550438977855613
  0.0000000000000000  0.0000000000000000  0.8998408522969741
  0.4999954253369526  0.0000037700624399  0.8998383862866587
  0.0000037700624399  0.5000008046006074  0.8998383862866587
  0.5000008046006074  0.4999954253369526  0.8998383862866587
 
  0.00000000E+00  0.00000000E+00  0.00000000E+00
  0.00000000E+00  0.00000000E+00  0.00000000E+00
  0.00000000E+00  0.00000000E+00  0.00000000E+00
  0.00000000E+00  0.00000000E+00  0.00000000E+00
  0.00000000E+00  0.00000000E+00  0.00000000E+00
  0.00000000E+00  0.00000000E+00  0.00000000E+00
  0.00000000E+00  0.00000000E+00  0.00000000E+00
  0.00000000E+00  0.00000000E+00  0.00000000E+00
  0.00000000E+00  0.00000000E+00  0.00000000E+00
  0.00000000E+00  0.00000000E+00  0.00000000E+00
  0.00000000E+00  0.00000000E+00  0.00000000E+00
  0.00000000E+00  0.00000000E+00  0.00000000E+00
  0.00000000E+00  0.00000000E+00  0.00000000E+00
  0.00000000E+00  0.00000000E+00  0.00000000E+00
  0.00000000E+00  0.00000000E+00  0.00000000E+00
  0.00000000E+00  0.00000000E+00  0.00000000E+00
  0.00000000E+00  0.00000000E+00  0.00000000E+00
  0.00000000E+00  0.00000000E+00  0.00000000E+00
  0.00000000E+00  0.00000000E+00  0.00000000E+00
  0.00000000E+00  0.00000000E+00  0.00000000E+00
  0.00000000E+00  0.00000000E+00  0.00000000E+00
  0.00000000E+00  0.00000000E+00  0.00000000E+00
