 Ag Bi P Se Sc                          
   1.00000000000000     
    -6.4988089999999996    0.0000000000000000    0.0000000000000000
    -3.2494039999999997   -5.6281340000000002    0.0000000000000000
     0.0000000000000000    0.0000000000000000   23.5474730000000001
   Ag   Bi   P    Se   Sc
     2     1     4    12     1
Direct
 -0.0000000000000000  0.0000000000000000  0.4243196189978332
  0.6666669999999968  0.6666659999999993  0.8998448310423186
  0.6666669999999968  0.6666659999999993  0.4239826135450489
  0.3333330000000032  0.3333340000000007  0.3758446745836064
  0.3333330000000032  0.3333340000000007  0.4724915900120755
  0.3333330000000032  0.3333340000000007  0.8530806058865515
  0.3333330000000032  0.3333340000000007  0.9467516037161215
  0.3284093047895943  0.6523729754118335  0.3453014571656616
  0.6523739754118310  0.0192167197985819  0.3453014571656616
  0.0192177197985794  0.3284083047895968  0.3453014571656616
  0.3290112970031203  0.0188109968905872  0.5029139658645796
  0.0188109968905872  0.6521777061062997  0.5029139658645796
  0.6521777061062997  0.3290112970031203  0.5029139658645796
  0.3159678371520166  0.0205213759756962  0.8251399028914260
  0.3160032491858820  0.6635195351827082  0.9746629940722333
  0.6635107868722944  0.3159678371520166  0.8251399028914260
  0.0205213759756962  0.6635107868722944  0.8251399028914260
  0.0204772156314097  0.3160032491858820  0.9746629940722333
  0.6635195351827082  0.0204772156314097  0.9746629940722333
 -0.0000000000000000  0.0000000000000000  0.8999198537846168
 
  0.00000000E+00  0.00000000E+00  0.00000000E+00
  0.00000000E+00  0.00000000E+00  0.00000000E+00
  0.00000000E+00  0.00000000E+00  0.00000000E+00
  0.00000000E+00  0.00000000E+00  0.00000000E+00
  0.00000000E+00  0.00000000E+00  0.00000000E+00
  0.00000000E+00  0.00000000E+00  0.00000000E+00
  0.00000000E+00  0.00000000E+00  0.00000000E+00
  0.00000000E+00  0.00000000E+00  0.00000000E+00
  0.00000000E+00  0.00000000E+00  0.00000000E+00
  0.00000000E+00  0.00000000E+00  0.00000000E+00
  0.00000000E+00  0.00000000E+00  0.00000000E+00
  0.00000000E+00  0.00000000E+00  0.00000000E+00
  0.00000000E+00  0.00000000E+00  0.00000000E+00
  0.00000000E+00  0.00000000E+00  0.00000000E+00
  0.00000000E+00  0.00000000E+00  0.00000000E+00
  0.00000000E+00  0.00000000E+00  0.00000000E+00
  0.00000000E+00  0.00000000E+00  0.00000000E+00
  0.00000000E+00  0.00000000E+00  0.00000000E+00
  0.00000000E+00  0.00000000E+00  0.00000000E+00
  0.00000000E+00  0.00000000E+00  0.00000000E+00
